42 -43 0
1 -43 0
-42 -1 43 0
42 -44 0
2 -44 0
-42 -2 44 0
42 -45 0
3 -45 0
-42 -3 45 0
42 -46 0
4 -46 0
-42 -4 46 0
42 -47 0
5 -47 0
-42 -5 47 0
42 -48 0
6 -48 0
-42 -6 48 0
42 -49 0
7 -49 0
-42 -7 49 0
42 -50 0
8 -50 0
-42 -8 50 0
42 -51 0
9 -51 0
-42 -9 51 0
42 -52 0
10 -52 0
-42 -10 52 0
42 -53 0
11 -53 0
-42 -11 53 0
42 -54 0
12 -54 0
-42 -12 54 0
42 -55 0
13 -55 0
-42 -13 55 0
42 -56 0
14 -56 0
-42 -14 56 0
42 -57 0
15 -57 0
-42 -15 57 0
42 -58 0
16 -58 0
-42 -16 58 0
42 -59 0
17 -59 0
-42 -17 59 0
42 -60 0
18 -60 0
-42 -18 60 0
42 -61 0
19 -61 0
-42 -19 61 0
42 -62 0
20 -62 0
-42 -20 62 0
42 -63 0
21 -63 0
-42 -21 63 0
41 -64 0
1 -64 0
-41 -1 64 0
41 -65 0
2 -65 0
-41 -2 65 0
41 -66 0
3 -66 0
-41 -3 66 0
41 -67 0
4 -67 0
-41 -4 67 0
41 -68 0
5 -68 0
-41 -5 68 0
41 -69 0
6 -69 0
-41 -6 69 0
41 -70 0
7 -70 0
-41 -7 70 0
41 -71 0
8 -71 0
-41 -8 71 0
41 -72 0
9 -72 0
-41 -9 72 0
41 -73 0
10 -73 0
-41 -10 73 0
41 -74 0
11 -74 0
-41 -11 74 0
41 -75 0
12 -75 0
-41 -12 75 0
41 -76 0
13 -76 0
-41 -13 76 0
41 -77 0
14 -77 0
-41 -14 77 0
41 -78 0
15 -78 0
-41 -15 78 0
41 -79 0
16 -79 0
-41 -16 79 0
41 -80 0
17 -80 0
-41 -17 80 0
41 -81 0
18 -81 0
-41 -18 81 0
41 -82 0
19 -82 0
-41 -19 82 0
41 -83 0
20 -83 0
-41 -20 83 0
41 -84 0
21 -84 0
-41 -21 84 0
62 84 -106 0
-62 -84 -106 0
-62 84 106 0
62 -84 106 0
62 -107 0
84 -107 0
-62 -84 107 0
61 83 -109 0
-61 -83 -109 0
-61 83 109 0
61 -83 109 0
109 107 -105 0
-109 -107 -105 0
-109 107 105 0
109 -107 105 0
-61 -83 108 0
-83 -107 108 0
-61 -107 108 0
61 83 -108 0
83 107 -108 0
61 107 -108 0
60 82 -111 0
-60 -82 -111 0
-60 82 111 0
60 -82 111 0
111 108 -104 0
-111 -108 -104 0
-111 108 104 0
111 -108 104 0
-60 -82 110 0
-82 -108 110 0
-60 -108 110 0
60 82 -110 0
82 108 -110 0
60 108 -110 0
59 81 -113 0
-59 -81 -113 0
-59 81 113 0
59 -81 113 0
113 110 -103 0
-113 -110 -103 0
-113 110 103 0
113 -110 103 0
-59 -81 112 0
-81 -110 112 0
-59 -110 112 0
59 81 -112 0
81 110 -112 0
59 110 -112 0
58 80 -115 0
-58 -80 -115 0
-58 80 115 0
58 -80 115 0
115 112 -102 0
-115 -112 -102 0
-115 112 102 0
115 -112 102 0
-58 -80 114 0
-80 -112 114 0
-58 -112 114 0
58 80 -114 0
80 112 -114 0
58 112 -114 0
57 79 -117 0
-57 -79 -117 0
-57 79 117 0
57 -79 117 0
117 114 -101 0
-117 -114 -101 0
-117 114 101 0
117 -114 101 0
-57 -79 116 0
-79 -114 116 0
-57 -114 116 0
57 79 -116 0
79 114 -116 0
57 114 -116 0
56 78 -119 0
-56 -78 -119 0
-56 78 119 0
56 -78 119 0
119 116 -100 0
-119 -116 -100 0
-119 116 100 0
119 -116 100 0
-56 -78 118 0
-78 -116 118 0
-56 -116 118 0
56 78 -118 0
78 116 -118 0
56 116 -118 0
55 77 -121 0
-55 -77 -121 0
-55 77 121 0
55 -77 121 0
121 118 -99 0
-121 -118 -99 0
-121 118 99 0
121 -118 99 0
-55 -77 120 0
-77 -118 120 0
-55 -118 120 0
55 77 -120 0
77 118 -120 0
55 118 -120 0
54 76 -123 0
-54 -76 -123 0
-54 76 123 0
54 -76 123 0
123 120 -98 0
-123 -120 -98 0
-123 120 98 0
123 -120 98 0
-54 -76 122 0
-76 -120 122 0
-54 -120 122 0
54 76 -122 0
76 120 -122 0
54 120 -122 0
53 75 -125 0
-53 -75 -125 0
-53 75 125 0
53 -75 125 0
125 122 -97 0
-125 -122 -97 0
-125 122 97 0
125 -122 97 0
-53 -75 124 0
-75 -122 124 0
-53 -122 124 0
53 75 -124 0
75 122 -124 0
53 122 -124 0
52 74 -127 0
-52 -74 -127 0
-52 74 127 0
52 -74 127 0
127 124 -96 0
-127 -124 -96 0
-127 124 96 0
127 -124 96 0
-52 -74 126 0
-74 -124 126 0
-52 -124 126 0
52 74 -126 0
74 124 -126 0
52 124 -126 0
51 73 -129 0
-51 -73 -129 0
-51 73 129 0
51 -73 129 0
129 126 -95 0
-129 -126 -95 0
-129 126 95 0
129 -126 95 0
-51 -73 128 0
-73 -126 128 0
-51 -126 128 0
51 73 -128 0
73 126 -128 0
51 126 -128 0
50 72 -131 0
-50 -72 -131 0
-50 72 131 0
50 -72 131 0
131 128 -94 0
-131 -128 -94 0
-131 128 94 0
131 -128 94 0
-50 -72 130 0
-72 -128 130 0
-50 -128 130 0
50 72 -130 0
72 128 -130 0
50 128 -130 0
49 71 -133 0
-49 -71 -133 0
-49 71 133 0
49 -71 133 0
133 130 -93 0
-133 -130 -93 0
-133 130 93 0
133 -130 93 0
-49 -71 132 0
-71 -130 132 0
-49 -130 132 0
49 71 -132 0
71 130 -132 0
49 130 -132 0
48 70 -135 0
-48 -70 -135 0
-48 70 135 0
48 -70 135 0
135 132 -92 0
-135 -132 -92 0
-135 132 92 0
135 -132 92 0
-48 -70 134 0
-70 -132 134 0
-48 -132 134 0
48 70 -134 0
70 132 -134 0
48 132 -134 0
47 69 -137 0
-47 -69 -137 0
-47 69 137 0
47 -69 137 0
137 134 -91 0
-137 -134 -91 0
-137 134 91 0
137 -134 91 0
-47 -69 136 0
-69 -134 136 0
-47 -134 136 0
47 69 -136 0
69 134 -136 0
47 134 -136 0
46 68 -139 0
-46 -68 -139 0
-46 68 139 0
46 -68 139 0
139 136 -90 0
-139 -136 -90 0
-139 136 90 0
139 -136 90 0
-46 -68 138 0
-68 -136 138 0
-46 -136 138 0
46 68 -138 0
68 136 -138 0
46 136 -138 0
45 67 -141 0
-45 -67 -141 0
-45 67 141 0
45 -67 141 0
141 138 -89 0
-141 -138 -89 0
-141 138 89 0
141 -138 89 0
-45 -67 140 0
-67 -138 140 0
-45 -138 140 0
45 67 -140 0
67 138 -140 0
45 138 -140 0
44 66 -143 0
-44 -66 -143 0
-44 66 143 0
44 -66 143 0
143 140 -88 0
-143 -140 -88 0
-143 140 88 0
143 -140 88 0
-44 -66 142 0
-66 -140 142 0
-44 -140 142 0
44 66 -142 0
66 140 -142 0
44 140 -142 0
43 65 -145 0
-43 -65 -145 0
-43 65 145 0
43 -65 145 0
145 142 -87 0
-145 -142 -87 0
-145 142 87 0
145 -142 87 0
-43 -65 144 0
-65 -142 144 0
-43 -142 144 0
43 65 -144 0
65 142 -144 0
43 142 -144 0
64 144 -86 0
-64 -144 -86 0
-64 144 86 0
64 -144 86 0
64 -85 0
144 -85 0
-64 -144 85 0
40 -146 0
1 -146 0
-40 -1 146 0
40 -147 0
2 -147 0
-40 -2 147 0
40 -148 0
3 -148 0
-40 -3 148 0
40 -149 0
4 -149 0
-40 -4 149 0
40 -150 0
5 -150 0
-40 -5 150 0
40 -151 0
6 -151 0
-40 -6 151 0
40 -152 0
7 -152 0
-40 -7 152 0
40 -153 0
8 -153 0
-40 -8 153 0
40 -154 0
9 -154 0
-40 -9 154 0
40 -155 0
10 -155 0
-40 -10 155 0
40 -156 0
11 -156 0
-40 -11 156 0
40 -157 0
12 -157 0
-40 -12 157 0
40 -158 0
13 -158 0
-40 -13 158 0
40 -159 0
14 -159 0
-40 -14 159 0
40 -160 0
15 -160 0
-40 -15 160 0
40 -161 0
16 -161 0
-40 -16 161 0
40 -162 0
17 -162 0
-40 -17 162 0
40 -163 0
18 -163 0
-40 -18 163 0
40 -164 0
19 -164 0
-40 -19 164 0
40 -165 0
20 -165 0
-40 -20 165 0
40 -166 0
21 -166 0
-40 -21 166 0
105 166 -188 0
-105 -166 -188 0
-105 166 188 0
105 -166 188 0
105 -189 0
166 -189 0
-105 -166 189 0
104 165 -191 0
-104 -165 -191 0
-104 165 191 0
104 -165 191 0
191 189 -187 0
-191 -189 -187 0
-191 189 187 0
191 -189 187 0
-104 -165 190 0
-165 -189 190 0
-104 -189 190 0
104 165 -190 0
165 189 -190 0
104 189 -190 0
103 164 -193 0
-103 -164 -193 0
-103 164 193 0
103 -164 193 0
193 190 -186 0
-193 -190 -186 0
-193 190 186 0
193 -190 186 0
-103 -164 192 0
-164 -190 192 0
-103 -190 192 0
103 164 -192 0
164 190 -192 0
103 190 -192 0
102 163 -195 0
-102 -163 -195 0
-102 163 195 0
102 -163 195 0
195 192 -185 0
-195 -192 -185 0
-195 192 185 0
195 -192 185 0
-102 -163 194 0
-163 -192 194 0
-102 -192 194 0
102 163 -194 0
163 192 -194 0
102 192 -194 0
101 162 -197 0
-101 -162 -197 0
-101 162 197 0
101 -162 197 0
197 194 -184 0
-197 -194 -184 0
-197 194 184 0
197 -194 184 0
-101 -162 196 0
-162 -194 196 0
-101 -194 196 0
101 162 -196 0
162 194 -196 0
101 194 -196 0
100 161 -199 0
-100 -161 -199 0
-100 161 199 0
100 -161 199 0
199 196 -183 0
-199 -196 -183 0
-199 196 183 0
199 -196 183 0
-100 -161 198 0
-161 -196 198 0
-100 -196 198 0
100 161 -198 0
161 196 -198 0
100 196 -198 0
99 160 -201 0
-99 -160 -201 0
-99 160 201 0
99 -160 201 0
201 198 -182 0
-201 -198 -182 0
-201 198 182 0
201 -198 182 0
-99 -160 200 0
-160 -198 200 0
-99 -198 200 0
99 160 -200 0
160 198 -200 0
99 198 -200 0
98 159 -203 0
-98 -159 -203 0
-98 159 203 0
98 -159 203 0
203 200 -181 0
-203 -200 -181 0
-203 200 181 0
203 -200 181 0
-98 -159 202 0
-159 -200 202 0
-98 -200 202 0
98 159 -202 0
159 200 -202 0
98 200 -202 0
97 158 -205 0
-97 -158 -205 0
-97 158 205 0
97 -158 205 0
205 202 -180 0
-205 -202 -180 0
-205 202 180 0
205 -202 180 0
-97 -158 204 0
-158 -202 204 0
-97 -202 204 0
97 158 -204 0
158 202 -204 0
97 202 -204 0
96 157 -207 0
-96 -157 -207 0
-96 157 207 0
96 -157 207 0
207 204 -179 0
-207 -204 -179 0
-207 204 179 0
207 -204 179 0
-96 -157 206 0
-157 -204 206 0
-96 -204 206 0
96 157 -206 0
157 204 -206 0
96 204 -206 0
95 156 -209 0
-95 -156 -209 0
-95 156 209 0
95 -156 209 0
209 206 -178 0
-209 -206 -178 0
-209 206 178 0
209 -206 178 0
-95 -156 208 0
-156 -206 208 0
-95 -206 208 0
95 156 -208 0
156 206 -208 0
95 206 -208 0
94 155 -211 0
-94 -155 -211 0
-94 155 211 0
94 -155 211 0
211 208 -177 0
-211 -208 -177 0
-211 208 177 0
211 -208 177 0
-94 -155 210 0
-155 -208 210 0
-94 -208 210 0
94 155 -210 0
155 208 -210 0
94 208 -210 0
93 154 -213 0
-93 -154 -213 0
-93 154 213 0
93 -154 213 0
213 210 -176 0
-213 -210 -176 0
-213 210 176 0
213 -210 176 0
-93 -154 212 0
-154 -210 212 0
-93 -210 212 0
93 154 -212 0
154 210 -212 0
93 210 -212 0
92 153 -215 0
-92 -153 -215 0
-92 153 215 0
92 -153 215 0
215 212 -175 0
-215 -212 -175 0
-215 212 175 0
215 -212 175 0
-92 -153 214 0
-153 -212 214 0
-92 -212 214 0
92 153 -214 0
153 212 -214 0
92 212 -214 0
91 152 -217 0
-91 -152 -217 0
-91 152 217 0
91 -152 217 0
217 214 -174 0
-217 -214 -174 0
-217 214 174 0
217 -214 174 0
-91 -152 216 0
-152 -214 216 0
-91 -214 216 0
91 152 -216 0
152 214 -216 0
91 214 -216 0
90 151 -219 0
-90 -151 -219 0
-90 151 219 0
90 -151 219 0
219 216 -173 0
-219 -216 -173 0
-219 216 173 0
219 -216 173 0
-90 -151 218 0
-151 -216 218 0
-90 -216 218 0
90 151 -218 0
151 216 -218 0
90 216 -218 0
89 150 -221 0
-89 -150 -221 0
-89 150 221 0
89 -150 221 0
221 218 -172 0
-221 -218 -172 0
-221 218 172 0
221 -218 172 0
-89 -150 220 0
-150 -218 220 0
-89 -218 220 0
89 150 -220 0
150 218 -220 0
89 218 -220 0
88 149 -223 0
-88 -149 -223 0
-88 149 223 0
88 -149 223 0
223 220 -171 0
-223 -220 -171 0
-223 220 171 0
223 -220 171 0
-88 -149 222 0
-149 -220 222 0
-88 -220 222 0
88 149 -222 0
149 220 -222 0
88 220 -222 0
87 148 -225 0
-87 -148 -225 0
-87 148 225 0
87 -148 225 0
225 222 -170 0
-225 -222 -170 0
-225 222 170 0
225 -222 170 0
-87 -148 224 0
-148 -222 224 0
-87 -222 224 0
87 148 -224 0
148 222 -224 0
87 222 -224 0
86 147 -227 0
-86 -147 -227 0
-86 147 227 0
86 -147 227 0
227 224 -169 0
-227 -224 -169 0
-227 224 169 0
227 -224 169 0
-86 -147 226 0
-147 -224 226 0
-86 -224 226 0
86 147 -226 0
147 224 -226 0
86 224 -226 0
85 146 -228 0
-85 -146 -228 0
-85 146 228 0
85 -146 228 0
228 226 -168 0
-228 -226 -168 0
-228 226 168 0
228 -226 168 0
-85 -146 167 0
-146 -226 167 0
-85 -226 167 0
85 146 -167 0
146 226 -167 0
85 226 -167 0
39 -229 0
1 -229 0
-39 -1 229 0
39 -230 0
2 -230 0
-39 -2 230 0
39 -231 0
3 -231 0
-39 -3 231 0
39 -232 0
4 -232 0
-39 -4 232 0
39 -233 0
5 -233 0
-39 -5 233 0
39 -234 0
6 -234 0
-39 -6 234 0
39 -235 0
7 -235 0
-39 -7 235 0
39 -236 0
8 -236 0
-39 -8 236 0
39 -237 0
9 -237 0
-39 -9 237 0
39 -238 0
10 -238 0
-39 -10 238 0
39 -239 0
11 -239 0
-39 -11 239 0
39 -240 0
12 -240 0
-39 -12 240 0
39 -241 0
13 -241 0
-39 -13 241 0
39 -242 0
14 -242 0
-39 -14 242 0
39 -243 0
15 -243 0
-39 -15 243 0
39 -244 0
16 -244 0
-39 -16 244 0
39 -245 0
17 -245 0
-39 -17 245 0
39 -246 0
18 -246 0
-39 -18 246 0
39 -247 0
19 -247 0
-39 -19 247 0
39 -248 0
20 -248 0
-39 -20 248 0
39 -249 0
21 -249 0
-39 -21 249 0
187 249 -271 0
-187 -249 -271 0
-187 249 271 0
187 -249 271 0
187 -272 0
249 -272 0
-187 -249 272 0
186 248 -274 0
-186 -248 -274 0
-186 248 274 0
186 -248 274 0
274 272 -270 0
-274 -272 -270 0
-274 272 270 0
274 -272 270 0
-186 -248 273 0
-248 -272 273 0
-186 -272 273 0
186 248 -273 0
248 272 -273 0
186 272 -273 0
185 247 -276 0
-185 -247 -276 0
-185 247 276 0
185 -247 276 0
276 273 -269 0
-276 -273 -269 0
-276 273 269 0
276 -273 269 0
-185 -247 275 0
-247 -273 275 0
-185 -273 275 0
185 247 -275 0
247 273 -275 0
185 273 -275 0
184 246 -278 0
-184 -246 -278 0
-184 246 278 0
184 -246 278 0
278 275 -268 0
-278 -275 -268 0
-278 275 268 0
278 -275 268 0
-184 -246 277 0
-246 -275 277 0
-184 -275 277 0
184 246 -277 0
246 275 -277 0
184 275 -277 0
183 245 -280 0
-183 -245 -280 0
-183 245 280 0
183 -245 280 0
280 277 -267 0
-280 -277 -267 0
-280 277 267 0
280 -277 267 0
-183 -245 279 0
-245 -277 279 0
-183 -277 279 0
183 245 -279 0
245 277 -279 0
183 277 -279 0
182 244 -282 0
-182 -244 -282 0
-182 244 282 0
182 -244 282 0
282 279 -266 0
-282 -279 -266 0
-282 279 266 0
282 -279 266 0
-182 -244 281 0
-244 -279 281 0
-182 -279 281 0
182 244 -281 0
244 279 -281 0
182 279 -281 0
181 243 -284 0
-181 -243 -284 0
-181 243 284 0
181 -243 284 0
284 281 -265 0
-284 -281 -265 0
-284 281 265 0
284 -281 265 0
-181 -243 283 0
-243 -281 283 0
-181 -281 283 0
181 243 -283 0
243 281 -283 0
181 281 -283 0
180 242 -286 0
-180 -242 -286 0
-180 242 286 0
180 -242 286 0
286 283 -264 0
-286 -283 -264 0
-286 283 264 0
286 -283 264 0
-180 -242 285 0
-242 -283 285 0
-180 -283 285 0
180 242 -285 0
242 283 -285 0
180 283 -285 0
179 241 -288 0
-179 -241 -288 0
-179 241 288 0
179 -241 288 0
288 285 -263 0
-288 -285 -263 0
-288 285 263 0
288 -285 263 0
-179 -241 287 0
-241 -285 287 0
-179 -285 287 0
179 241 -287 0
241 285 -287 0
179 285 -287 0
178 240 -290 0
-178 -240 -290 0
-178 240 290 0
178 -240 290 0
290 287 -262 0
-290 -287 -262 0
-290 287 262 0
290 -287 262 0
-178 -240 289 0
-240 -287 289 0
-178 -287 289 0
178 240 -289 0
240 287 -289 0
178 287 -289 0
177 239 -292 0
-177 -239 -292 0
-177 239 292 0
177 -239 292 0
292 289 -261 0
-292 -289 -261 0
-292 289 261 0
292 -289 261 0
-177 -239 291 0
-239 -289 291 0
-177 -289 291 0
177 239 -291 0
239 289 -291 0
177 289 -291 0
176 238 -294 0
-176 -238 -294 0
-176 238 294 0
176 -238 294 0
294 291 -260 0
-294 -291 -260 0
-294 291 260 0
294 -291 260 0
-176 -238 293 0
-238 -291 293 0
-176 -291 293 0
176 238 -293 0
238 291 -293 0
176 291 -293 0
175 237 -296 0
-175 -237 -296 0
-175 237 296 0
175 -237 296 0
296 293 -259 0
-296 -293 -259 0
-296 293 259 0
296 -293 259 0
-175 -237 295 0
-237 -293 295 0
-175 -293 295 0
175 237 -295 0
237 293 -295 0
175 293 -295 0
174 236 -298 0
-174 -236 -298 0
-174 236 298 0
174 -236 298 0
298 295 -258 0
-298 -295 -258 0
-298 295 258 0
298 -295 258 0
-174 -236 297 0
-236 -295 297 0
-174 -295 297 0
174 236 -297 0
236 295 -297 0
174 295 -297 0
173 235 -300 0
-173 -235 -300 0
-173 235 300 0
173 -235 300 0
300 297 -257 0
-300 -297 -257 0
-300 297 257 0
300 -297 257 0
-173 -235 299 0
-235 -297 299 0
-173 -297 299 0
173 235 -299 0
235 297 -299 0
173 297 -299 0
172 234 -302 0
-172 -234 -302 0
-172 234 302 0
172 -234 302 0
302 299 -256 0
-302 -299 -256 0
-302 299 256 0
302 -299 256 0
-172 -234 301 0
-234 -299 301 0
-172 -299 301 0
172 234 -301 0
234 299 -301 0
172 299 -301 0
171 233 -304 0
-171 -233 -304 0
-171 233 304 0
171 -233 304 0
304 301 -255 0
-304 -301 -255 0
-304 301 255 0
304 -301 255 0
-171 -233 303 0
-233 -301 303 0
-171 -301 303 0
171 233 -303 0
233 301 -303 0
171 301 -303 0
170 232 -306 0
-170 -232 -306 0
-170 232 306 0
170 -232 306 0
306 303 -254 0
-306 -303 -254 0
-306 303 254 0
306 -303 254 0
-170 -232 305 0
-232 -303 305 0
-170 -303 305 0
170 232 -305 0
232 303 -305 0
170 303 -305 0
169 231 -308 0
-169 -231 -308 0
-169 231 308 0
169 -231 308 0
308 305 -253 0
-308 -305 -253 0
-308 305 253 0
308 -305 253 0
-169 -231 307 0
-231 -305 307 0
-169 -305 307 0
169 231 -307 0
231 305 -307 0
169 305 -307 0
168 230 -310 0
-168 -230 -310 0
-168 230 310 0
168 -230 310 0
310 307 -252 0
-310 -307 -252 0
-310 307 252 0
310 -307 252 0
-168 -230 309 0
-230 -307 309 0
-168 -307 309 0
168 230 -309 0
230 307 -309 0
168 307 -309 0
167 229 -311 0
-167 -229 -311 0
-167 229 311 0
167 -229 311 0
311 309 -251 0
-311 -309 -251 0
-311 309 251 0
311 -309 251 0
-167 -229 250 0
-229 -309 250 0
-167 -309 250 0
167 229 -250 0
229 309 -250 0
167 309 -250 0
38 -312 0
1 -312 0
-38 -1 312 0
38 -313 0
2 -313 0
-38 -2 313 0
38 -314 0
3 -314 0
-38 -3 314 0
38 -315 0
4 -315 0
-38 -4 315 0
38 -316 0
5 -316 0
-38 -5 316 0
38 -317 0
6 -317 0
-38 -6 317 0
38 -318 0
7 -318 0
-38 -7 318 0
38 -319 0
8 -319 0
-38 -8 319 0
38 -320 0
9 -320 0
-38 -9 320 0
38 -321 0
10 -321 0
-38 -10 321 0
38 -322 0
11 -322 0
-38 -11 322 0
38 -323 0
12 -323 0
-38 -12 323 0
38 -324 0
13 -324 0
-38 -13 324 0
38 -325 0
14 -325 0
-38 -14 325 0
38 -326 0
15 -326 0
-38 -15 326 0
38 -327 0
16 -327 0
-38 -16 327 0
38 -328 0
17 -328 0
-38 -17 328 0
38 -329 0
18 -329 0
-38 -18 329 0
38 -330 0
19 -330 0
-38 -19 330 0
38 -331 0
20 -331 0
-38 -20 331 0
38 -332 0
21 -332 0
-38 -21 332 0
270 332 -354 0
-270 -332 -354 0
-270 332 354 0
270 -332 354 0
270 -355 0
332 -355 0
-270 -332 355 0
269 331 -357 0
-269 -331 -357 0
-269 331 357 0
269 -331 357 0
357 355 -353 0
-357 -355 -353 0
-357 355 353 0
357 -355 353 0
-269 -331 356 0
-331 -355 356 0
-269 -355 356 0
269 331 -356 0
331 355 -356 0
269 355 -356 0
268 330 -359 0
-268 -330 -359 0
-268 330 359 0
268 -330 359 0
359 356 -352 0
-359 -356 -352 0
-359 356 352 0
359 -356 352 0
-268 -330 358 0
-330 -356 358 0
-268 -356 358 0
268 330 -358 0
330 356 -358 0
268 356 -358 0
267 329 -361 0
-267 -329 -361 0
-267 329 361 0
267 -329 361 0
361 358 -351 0
-361 -358 -351 0
-361 358 351 0
361 -358 351 0
-267 -329 360 0
-329 -358 360 0
-267 -358 360 0
267 329 -360 0
329 358 -360 0
267 358 -360 0
266 328 -363 0
-266 -328 -363 0
-266 328 363 0
266 -328 363 0
363 360 -350 0
-363 -360 -350 0
-363 360 350 0
363 -360 350 0
-266 -328 362 0
-328 -360 362 0
-266 -360 362 0
266 328 -362 0
328 360 -362 0
266 360 -362 0
265 327 -365 0
-265 -327 -365 0
-265 327 365 0
265 -327 365 0
365 362 -349 0
-365 -362 -349 0
-365 362 349 0
365 -362 349 0
-265 -327 364 0
-327 -362 364 0
-265 -362 364 0
265 327 -364 0
327 362 -364 0
265 362 -364 0
264 326 -367 0
-264 -326 -367 0
-264 326 367 0
264 -326 367 0
367 364 -348 0
-367 -364 -348 0
-367 364 348 0
367 -364 348 0
-264 -326 366 0
-326 -364 366 0
-264 -364 366 0
264 326 -366 0
326 364 -366 0
264 364 -366 0
263 325 -369 0
-263 -325 -369 0
-263 325 369 0
263 -325 369 0
369 366 -347 0
-369 -366 -347 0
-369 366 347 0
369 -366 347 0
-263 -325 368 0
-325 -366 368 0
-263 -366 368 0
263 325 -368 0
325 366 -368 0
263 366 -368 0
262 324 -371 0
-262 -324 -371 0
-262 324 371 0
262 -324 371 0
371 368 -346 0
-371 -368 -346 0
-371 368 346 0
371 -368 346 0
-262 -324 370 0
-324 -368 370 0
-262 -368 370 0
262 324 -370 0
324 368 -370 0
262 368 -370 0
261 323 -373 0
-261 -323 -373 0
-261 323 373 0
261 -323 373 0
373 370 -345 0
-373 -370 -345 0
-373 370 345 0
373 -370 345 0
-261 -323 372 0
-323 -370 372 0
-261 -370 372 0
261 323 -372 0
323 370 -372 0
261 370 -372 0
260 322 -375 0
-260 -322 -375 0
-260 322 375 0
260 -322 375 0
375 372 -344 0
-375 -372 -344 0
-375 372 344 0
375 -372 344 0
-260 -322 374 0
-322 -372 374 0
-260 -372 374 0
260 322 -374 0
322 372 -374 0
260 372 -374 0
259 321 -377 0
-259 -321 -377 0
-259 321 377 0
259 -321 377 0
377 374 -343 0
-377 -374 -343 0
-377 374 343 0
377 -374 343 0
-259 -321 376 0
-321 -374 376 0
-259 -374 376 0
259 321 -376 0
321 374 -376 0
259 374 -376 0
258 320 -379 0
-258 -320 -379 0
-258 320 379 0
258 -320 379 0
379 376 -342 0
-379 -376 -342 0
-379 376 342 0
379 -376 342 0
-258 -320 378 0
-320 -376 378 0
-258 -376 378 0
258 320 -378 0
320 376 -378 0
258 376 -378 0
257 319 -381 0
-257 -319 -381 0
-257 319 381 0
257 -319 381 0
381 378 -341 0
-381 -378 -341 0
-381 378 341 0
381 -378 341 0
-257 -319 380 0
-319 -378 380 0
-257 -378 380 0
257 319 -380 0
319 378 -380 0
257 378 -380 0
256 318 -383 0
-256 -318 -383 0
-256 318 383 0
256 -318 383 0
383 380 -340 0
-383 -380 -340 0
-383 380 340 0
383 -380 340 0
-256 -318 382 0
-318 -380 382 0
-256 -380 382 0
256 318 -382 0
318 380 -382 0
256 380 -382 0
255 317 -385 0
-255 -317 -385 0
-255 317 385 0
255 -317 385 0
385 382 -339 0
-385 -382 -339 0
-385 382 339 0
385 -382 339 0
-255 -317 384 0
-317 -382 384 0
-255 -382 384 0
255 317 -384 0
317 382 -384 0
255 382 -384 0
254 316 -387 0
-254 -316 -387 0
-254 316 387 0
254 -316 387 0
387 384 -338 0
-387 -384 -338 0
-387 384 338 0
387 -384 338 0
-254 -316 386 0
-316 -384 386 0
-254 -384 386 0
254 316 -386 0
316 384 -386 0
254 384 -386 0
253 315 -389 0
-253 -315 -389 0
-253 315 389 0
253 -315 389 0
389 386 -337 0
-389 -386 -337 0
-389 386 337 0
389 -386 337 0
-253 -315 388 0
-315 -386 388 0
-253 -386 388 0
253 315 -388 0
315 386 -388 0
253 386 -388 0
252 314 -391 0
-252 -314 -391 0
-252 314 391 0
252 -314 391 0
391 388 -336 0
-391 -388 -336 0
-391 388 336 0
391 -388 336 0
-252 -314 390 0
-314 -388 390 0
-252 -388 390 0
252 314 -390 0
314 388 -390 0
252 388 -390 0
251 313 -393 0
-251 -313 -393 0
-251 313 393 0
251 -313 393 0
393 390 -335 0
-393 -390 -335 0
-393 390 335 0
393 -390 335 0
-251 -313 392 0
-313 -390 392 0
-251 -390 392 0
251 313 -392 0
313 390 -392 0
251 390 -392 0
250 312 -394 0
-250 -312 -394 0
-250 312 394 0
250 -312 394 0
394 392 -334 0
-394 -392 -334 0
-394 392 334 0
394 -392 334 0
-250 -312 333 0
-312 -392 333 0
-250 -392 333 0
250 312 -333 0
312 392 -333 0
250 392 -333 0
37 -395 0
1 -395 0
-37 -1 395 0
37 -396 0
2 -396 0
-37 -2 396 0
37 -397 0
3 -397 0
-37 -3 397 0
37 -398 0
4 -398 0
-37 -4 398 0
37 -399 0
5 -399 0
-37 -5 399 0
37 -400 0
6 -400 0
-37 -6 400 0
37 -401 0
7 -401 0
-37 -7 401 0
37 -402 0
8 -402 0
-37 -8 402 0
37 -403 0
9 -403 0
-37 -9 403 0
37 -404 0
10 -404 0
-37 -10 404 0
37 -405 0
11 -405 0
-37 -11 405 0
37 -406 0
12 -406 0
-37 -12 406 0
37 -407 0
13 -407 0
-37 -13 407 0
37 -408 0
14 -408 0
-37 -14 408 0
37 -409 0
15 -409 0
-37 -15 409 0
37 -410 0
16 -410 0
-37 -16 410 0
37 -411 0
17 -411 0
-37 -17 411 0
37 -412 0
18 -412 0
-37 -18 412 0
37 -413 0
19 -413 0
-37 -19 413 0
37 -414 0
20 -414 0
-37 -20 414 0
37 -415 0
21 -415 0
-37 -21 415 0
353 415 -437 0
-353 -415 -437 0
-353 415 437 0
353 -415 437 0
353 -438 0
415 -438 0
-353 -415 438 0
352 414 -440 0
-352 -414 -440 0
-352 414 440 0
352 -414 440 0
440 438 -436 0
-440 -438 -436 0
-440 438 436 0
440 -438 436 0
-352 -414 439 0
-414 -438 439 0
-352 -438 439 0
352 414 -439 0
414 438 -439 0
352 438 -439 0
351 413 -442 0
-351 -413 -442 0
-351 413 442 0
351 -413 442 0
442 439 -435 0
-442 -439 -435 0
-442 439 435 0
442 -439 435 0
-351 -413 441 0
-413 -439 441 0
-351 -439 441 0
351 413 -441 0
413 439 -441 0
351 439 -441 0
350 412 -444 0
-350 -412 -444 0
-350 412 444 0
350 -412 444 0
444 441 -434 0
-444 -441 -434 0
-444 441 434 0
444 -441 434 0
-350 -412 443 0
-412 -441 443 0
-350 -441 443 0
350 412 -443 0
412 441 -443 0
350 441 -443 0
349 411 -446 0
-349 -411 -446 0
-349 411 446 0
349 -411 446 0
446 443 -433 0
-446 -443 -433 0
-446 443 433 0
446 -443 433 0
-349 -411 445 0
-411 -443 445 0
-349 -443 445 0
349 411 -445 0
411 443 -445 0
349 443 -445 0
348 410 -448 0
-348 -410 -448 0
-348 410 448 0
348 -410 448 0
448 445 -432 0
-448 -445 -432 0
-448 445 432 0
448 -445 432 0
-348 -410 447 0
-410 -445 447 0
-348 -445 447 0
348 410 -447 0
410 445 -447 0
348 445 -447 0
347 409 -450 0
-347 -409 -450 0
-347 409 450 0
347 -409 450 0
450 447 -431 0
-450 -447 -431 0
-450 447 431 0
450 -447 431 0
-347 -409 449 0
-409 -447 449 0
-347 -447 449 0
347 409 -449 0
409 447 -449 0
347 447 -449 0
346 408 -452 0
-346 -408 -452 0
-346 408 452 0
346 -408 452 0
452 449 -430 0
-452 -449 -430 0
-452 449 430 0
452 -449 430 0
-346 -408 451 0
-408 -449 451 0
-346 -449 451 0
346 408 -451 0
408 449 -451 0
346 449 -451 0
345 407 -454 0
-345 -407 -454 0
-345 407 454 0
345 -407 454 0
454 451 -429 0
-454 -451 -429 0
-454 451 429 0
454 -451 429 0
-345 -407 453 0
-407 -451 453 0
-345 -451 453 0
345 407 -453 0
407 451 -453 0
345 451 -453 0
344 406 -456 0
-344 -406 -456 0
-344 406 456 0
344 -406 456 0
456 453 -428 0
-456 -453 -428 0
-456 453 428 0
456 -453 428 0
-344 -406 455 0
-406 -453 455 0
-344 -453 455 0
344 406 -455 0
406 453 -455 0
344 453 -455 0
343 405 -458 0
-343 -405 -458 0
-343 405 458 0
343 -405 458 0
458 455 -427 0
-458 -455 -427 0
-458 455 427 0
458 -455 427 0
-343 -405 457 0
-405 -455 457 0
-343 -455 457 0
343 405 -457 0
405 455 -457 0
343 455 -457 0
342 404 -460 0
-342 -404 -460 0
-342 404 460 0
342 -404 460 0
460 457 -426 0
-460 -457 -426 0
-460 457 426 0
460 -457 426 0
-342 -404 459 0
-404 -457 459 0
-342 -457 459 0
342 404 -459 0
404 457 -459 0
342 457 -459 0
341 403 -462 0
-341 -403 -462 0
-341 403 462 0
341 -403 462 0
462 459 -425 0
-462 -459 -425 0
-462 459 425 0
462 -459 425 0
-341 -403 461 0
-403 -459 461 0
-341 -459 461 0
341 403 -461 0
403 459 -461 0
341 459 -461 0
340 402 -464 0
-340 -402 -464 0
-340 402 464 0
340 -402 464 0
464 461 -424 0
-464 -461 -424 0
-464 461 424 0
464 -461 424 0
-340 -402 463 0
-402 -461 463 0
-340 -461 463 0
340 402 -463 0
402 461 -463 0
340 461 -463 0
339 401 -466 0
-339 -401 -466 0
-339 401 466 0
339 -401 466 0
466 463 -423 0
-466 -463 -423 0
-466 463 423 0
466 -463 423 0
-339 -401 465 0
-401 -463 465 0
-339 -463 465 0
339 401 -465 0
401 463 -465 0
339 463 -465 0
338 400 -468 0
-338 -400 -468 0
-338 400 468 0
338 -400 468 0
468 465 -422 0
-468 -465 -422 0
-468 465 422 0
468 -465 422 0
-338 -400 467 0
-400 -465 467 0
-338 -465 467 0
338 400 -467 0
400 465 -467 0
338 465 -467 0
337 399 -470 0
-337 -399 -470 0
-337 399 470 0
337 -399 470 0
470 467 -421 0
-470 -467 -421 0
-470 467 421 0
470 -467 421 0
-337 -399 469 0
-399 -467 469 0
-337 -467 469 0
337 399 -469 0
399 467 -469 0
337 467 -469 0
336 398 -472 0
-336 -398 -472 0
-336 398 472 0
336 -398 472 0
472 469 -420 0
-472 -469 -420 0
-472 469 420 0
472 -469 420 0
-336 -398 471 0
-398 -469 471 0
-336 -469 471 0
336 398 -471 0
398 469 -471 0
336 469 -471 0
335 397 -474 0
-335 -397 -474 0
-335 397 474 0
335 -397 474 0
474 471 -419 0
-474 -471 -419 0
-474 471 419 0
474 -471 419 0
-335 -397 473 0
-397 -471 473 0
-335 -471 473 0
335 397 -473 0
397 471 -473 0
335 471 -473 0
334 396 -476 0
-334 -396 -476 0
-334 396 476 0
334 -396 476 0
476 473 -418 0
-476 -473 -418 0
-476 473 418 0
476 -473 418 0
-334 -396 475 0
-396 -473 475 0
-334 -473 475 0
334 396 -475 0
396 473 -475 0
334 473 -475 0
333 395 -477 0
-333 -395 -477 0
-333 395 477 0
333 -395 477 0
477 475 -417 0
-477 -475 -417 0
-477 475 417 0
477 -475 417 0
-333 -395 416 0
-395 -475 416 0
-333 -475 416 0
333 395 -416 0
395 475 -416 0
333 475 -416 0
36 -478 0
1 -478 0
-36 -1 478 0
36 -479 0
2 -479 0
-36 -2 479 0
36 -480 0
3 -480 0
-36 -3 480 0
36 -481 0
4 -481 0
-36 -4 481 0
36 -482 0
5 -482 0
-36 -5 482 0
36 -483 0
6 -483 0
-36 -6 483 0
36 -484 0
7 -484 0
-36 -7 484 0
36 -485 0
8 -485 0
-36 -8 485 0
36 -486 0
9 -486 0
-36 -9 486 0
36 -487 0
10 -487 0
-36 -10 487 0
36 -488 0
11 -488 0
-36 -11 488 0
36 -489 0
12 -489 0
-36 -12 489 0
36 -490 0
13 -490 0
-36 -13 490 0
36 -491 0
14 -491 0
-36 -14 491 0
36 -492 0
15 -492 0
-36 -15 492 0
36 -493 0
16 -493 0
-36 -16 493 0
36 -494 0
17 -494 0
-36 -17 494 0
36 -495 0
18 -495 0
-36 -18 495 0
36 -496 0
19 -496 0
-36 -19 496 0
36 -497 0
20 -497 0
-36 -20 497 0
36 -498 0
21 -498 0
-36 -21 498 0
436 498 -520 0
-436 -498 -520 0
-436 498 520 0
436 -498 520 0
436 -521 0
498 -521 0
-436 -498 521 0
435 497 -523 0
-435 -497 -523 0
-435 497 523 0
435 -497 523 0
523 521 -519 0
-523 -521 -519 0
-523 521 519 0
523 -521 519 0
-435 -497 522 0
-497 -521 522 0
-435 -521 522 0
435 497 -522 0
497 521 -522 0
435 521 -522 0
434 496 -525 0
-434 -496 -525 0
-434 496 525 0
434 -496 525 0
525 522 -518 0
-525 -522 -518 0
-525 522 518 0
525 -522 518 0
-434 -496 524 0
-496 -522 524 0
-434 -522 524 0
434 496 -524 0
496 522 -524 0
434 522 -524 0
433 495 -527 0
-433 -495 -527 0
-433 495 527 0
433 -495 527 0
527 524 -517 0
-527 -524 -517 0
-527 524 517 0
527 -524 517 0
-433 -495 526 0
-495 -524 526 0
-433 -524 526 0
433 495 -526 0
495 524 -526 0
433 524 -526 0
432 494 -529 0
-432 -494 -529 0
-432 494 529 0
432 -494 529 0
529 526 -516 0
-529 -526 -516 0
-529 526 516 0
529 -526 516 0
-432 -494 528 0
-494 -526 528 0
-432 -526 528 0
432 494 -528 0
494 526 -528 0
432 526 -528 0
431 493 -531 0
-431 -493 -531 0
-431 493 531 0
431 -493 531 0
531 528 -515 0
-531 -528 -515 0
-531 528 515 0
531 -528 515 0
-431 -493 530 0
-493 -528 530 0
-431 -528 530 0
431 493 -530 0
493 528 -530 0
431 528 -530 0
430 492 -533 0
-430 -492 -533 0
-430 492 533 0
430 -492 533 0
533 530 -514 0
-533 -530 -514 0
-533 530 514 0
533 -530 514 0
-430 -492 532 0
-492 -530 532 0
-430 -530 532 0
430 492 -532 0
492 530 -532 0
430 530 -532 0
429 491 -535 0
-429 -491 -535 0
-429 491 535 0
429 -491 535 0
535 532 -513 0
-535 -532 -513 0
-535 532 513 0
535 -532 513 0
-429 -491 534 0
-491 -532 534 0
-429 -532 534 0
429 491 -534 0
491 532 -534 0
429 532 -534 0
428 490 -537 0
-428 -490 -537 0
-428 490 537 0
428 -490 537 0
537 534 -512 0
-537 -534 -512 0
-537 534 512 0
537 -534 512 0
-428 -490 536 0
-490 -534 536 0
-428 -534 536 0
428 490 -536 0
490 534 -536 0
428 534 -536 0
427 489 -539 0
-427 -489 -539 0
-427 489 539 0
427 -489 539 0
539 536 -511 0
-539 -536 -511 0
-539 536 511 0
539 -536 511 0
-427 -489 538 0
-489 -536 538 0
-427 -536 538 0
427 489 -538 0
489 536 -538 0
427 536 -538 0
426 488 -541 0
-426 -488 -541 0
-426 488 541 0
426 -488 541 0
541 538 -510 0
-541 -538 -510 0
-541 538 510 0
541 -538 510 0
-426 -488 540 0
-488 -538 540 0
-426 -538 540 0
426 488 -540 0
488 538 -540 0
426 538 -540 0
425 487 -543 0
-425 -487 -543 0
-425 487 543 0
425 -487 543 0
543 540 -509 0
-543 -540 -509 0
-543 540 509 0
543 -540 509 0
-425 -487 542 0
-487 -540 542 0
-425 -540 542 0
425 487 -542 0
487 540 -542 0
425 540 -542 0
424 486 -545 0
-424 -486 -545 0
-424 486 545 0
424 -486 545 0
545 542 -508 0
-545 -542 -508 0
-545 542 508 0
545 -542 508 0
-424 -486 544 0
-486 -542 544 0
-424 -542 544 0
424 486 -544 0
486 542 -544 0
424 542 -544 0
423 485 -547 0
-423 -485 -547 0
-423 485 547 0
423 -485 547 0
547 544 -507 0
-547 -544 -507 0
-547 544 507 0
547 -544 507 0
-423 -485 546 0
-485 -544 546 0
-423 -544 546 0
423 485 -546 0
485 544 -546 0
423 544 -546 0
422 484 -549 0
-422 -484 -549 0
-422 484 549 0
422 -484 549 0
549 546 -506 0
-549 -546 -506 0
-549 546 506 0
549 -546 506 0
-422 -484 548 0
-484 -546 548 0
-422 -546 548 0
422 484 -548 0
484 546 -548 0
422 546 -548 0
421 483 -551 0
-421 -483 -551 0
-421 483 551 0
421 -483 551 0
551 548 -505 0
-551 -548 -505 0
-551 548 505 0
551 -548 505 0
-421 -483 550 0
-483 -548 550 0
-421 -548 550 0
421 483 -550 0
483 548 -550 0
421 548 -550 0
420 482 -553 0
-420 -482 -553 0
-420 482 553 0
420 -482 553 0
553 550 -504 0
-553 -550 -504 0
-553 550 504 0
553 -550 504 0
-420 -482 552 0
-482 -550 552 0
-420 -550 552 0
420 482 -552 0
482 550 -552 0
420 550 -552 0
419 481 -555 0
-419 -481 -555 0
-419 481 555 0
419 -481 555 0
555 552 -503 0
-555 -552 -503 0
-555 552 503 0
555 -552 503 0
-419 -481 554 0
-481 -552 554 0
-419 -552 554 0
419 481 -554 0
481 552 -554 0
419 552 -554 0
418 480 -557 0
-418 -480 -557 0
-418 480 557 0
418 -480 557 0
557 554 -502 0
-557 -554 -502 0
-557 554 502 0
557 -554 502 0
-418 -480 556 0
-480 -554 556 0
-418 -554 556 0
418 480 -556 0
480 554 -556 0
418 554 -556 0
417 479 -559 0
-417 -479 -559 0
-417 479 559 0
417 -479 559 0
559 556 -501 0
-559 -556 -501 0
-559 556 501 0
559 -556 501 0
-417 -479 558 0
-479 -556 558 0
-417 -556 558 0
417 479 -558 0
479 556 -558 0
417 556 -558 0
416 478 -560 0
-416 -478 -560 0
-416 478 560 0
416 -478 560 0
560 558 -500 0
-560 -558 -500 0
-560 558 500 0
560 -558 500 0
-416 -478 499 0
-478 -558 499 0
-416 -558 499 0
416 478 -499 0
478 558 -499 0
416 558 -499 0
35 -561 0
1 -561 0
-35 -1 561 0
35 -562 0
2 -562 0
-35 -2 562 0
35 -563 0
3 -563 0
-35 -3 563 0
35 -564 0
4 -564 0
-35 -4 564 0
35 -565 0
5 -565 0
-35 -5 565 0
35 -566 0
6 -566 0
-35 -6 566 0
35 -567 0
7 -567 0
-35 -7 567 0
35 -568 0
8 -568 0
-35 -8 568 0
35 -569 0
9 -569 0
-35 -9 569 0
35 -570 0
10 -570 0
-35 -10 570 0
35 -571 0
11 -571 0
-35 -11 571 0
35 -572 0
12 -572 0
-35 -12 572 0
35 -573 0
13 -573 0
-35 -13 573 0
35 -574 0
14 -574 0
-35 -14 574 0
35 -575 0
15 -575 0
-35 -15 575 0
35 -576 0
16 -576 0
-35 -16 576 0
35 -577 0
17 -577 0
-35 -17 577 0
35 -578 0
18 -578 0
-35 -18 578 0
35 -579 0
19 -579 0
-35 -19 579 0
35 -580 0
20 -580 0
-35 -20 580 0
35 -581 0
21 -581 0
-35 -21 581 0
519 581 -603 0
-519 -581 -603 0
-519 581 603 0
519 -581 603 0
519 -604 0
581 -604 0
-519 -581 604 0
518 580 -606 0
-518 -580 -606 0
-518 580 606 0
518 -580 606 0
606 604 -602 0
-606 -604 -602 0
-606 604 602 0
606 -604 602 0
-518 -580 605 0
-580 -604 605 0
-518 -604 605 0
518 580 -605 0
580 604 -605 0
518 604 -605 0
517 579 -608 0
-517 -579 -608 0
-517 579 608 0
517 -579 608 0
608 605 -601 0
-608 -605 -601 0
-608 605 601 0
608 -605 601 0
-517 -579 607 0
-579 -605 607 0
-517 -605 607 0
517 579 -607 0
579 605 -607 0
517 605 -607 0
516 578 -610 0
-516 -578 -610 0
-516 578 610 0
516 -578 610 0
610 607 -600 0
-610 -607 -600 0
-610 607 600 0
610 -607 600 0
-516 -578 609 0
-578 -607 609 0
-516 -607 609 0
516 578 -609 0
578 607 -609 0
516 607 -609 0
515 577 -612 0
-515 -577 -612 0
-515 577 612 0
515 -577 612 0
612 609 -599 0
-612 -609 -599 0
-612 609 599 0
612 -609 599 0
-515 -577 611 0
-577 -609 611 0
-515 -609 611 0
515 577 -611 0
577 609 -611 0
515 609 -611 0
514 576 -614 0
-514 -576 -614 0
-514 576 614 0
514 -576 614 0
614 611 -598 0
-614 -611 -598 0
-614 611 598 0
614 -611 598 0
-514 -576 613 0
-576 -611 613 0
-514 -611 613 0
514 576 -613 0
576 611 -613 0
514 611 -613 0
513 575 -616 0
-513 -575 -616 0
-513 575 616 0
513 -575 616 0
616 613 -597 0
-616 -613 -597 0
-616 613 597 0
616 -613 597 0
-513 -575 615 0
-575 -613 615 0
-513 -613 615 0
513 575 -615 0
575 613 -615 0
513 613 -615 0
512 574 -618 0
-512 -574 -618 0
-512 574 618 0
512 -574 618 0
618 615 -596 0
-618 -615 -596 0
-618 615 596 0
618 -615 596 0
-512 -574 617 0
-574 -615 617 0
-512 -615 617 0
512 574 -617 0
574 615 -617 0
512 615 -617 0
511 573 -620 0
-511 -573 -620 0
-511 573 620 0
511 -573 620 0
620 617 -595 0
-620 -617 -595 0
-620 617 595 0
620 -617 595 0
-511 -573 619 0
-573 -617 619 0
-511 -617 619 0
511 573 -619 0
573 617 -619 0
511 617 -619 0
510 572 -622 0
-510 -572 -622 0
-510 572 622 0
510 -572 622 0
622 619 -594 0
-622 -619 -594 0
-622 619 594 0
622 -619 594 0
-510 -572 621 0
-572 -619 621 0
-510 -619 621 0
510 572 -621 0
572 619 -621 0
510 619 -621 0
509 571 -624 0
-509 -571 -624 0
-509 571 624 0
509 -571 624 0
624 621 -593 0
-624 -621 -593 0
-624 621 593 0
624 -621 593 0
-509 -571 623 0
-571 -621 623 0
-509 -621 623 0
509 571 -623 0
571 621 -623 0
509 621 -623 0
508 570 -626 0
-508 -570 -626 0
-508 570 626 0
508 -570 626 0
626 623 -592 0
-626 -623 -592 0
-626 623 592 0
626 -623 592 0
-508 -570 625 0
-570 -623 625 0
-508 -623 625 0
508 570 -625 0
570 623 -625 0
508 623 -625 0
507 569 -628 0
-507 -569 -628 0
-507 569 628 0
507 -569 628 0
628 625 -591 0
-628 -625 -591 0
-628 625 591 0
628 -625 591 0
-507 -569 627 0
-569 -625 627 0
-507 -625 627 0
507 569 -627 0
569 625 -627 0
507 625 -627 0
506 568 -630 0
-506 -568 -630 0
-506 568 630 0
506 -568 630 0
630 627 -590 0
-630 -627 -590 0
-630 627 590 0
630 -627 590 0
-506 -568 629 0
-568 -627 629 0
-506 -627 629 0
506 568 -629 0
568 627 -629 0
506 627 -629 0
505 567 -632 0
-505 -567 -632 0
-505 567 632 0
505 -567 632 0
632 629 -589 0
-632 -629 -589 0
-632 629 589 0
632 -629 589 0
-505 -567 631 0
-567 -629 631 0
-505 -629 631 0
505 567 -631 0
567 629 -631 0
505 629 -631 0
504 566 -634 0
-504 -566 -634 0
-504 566 634 0
504 -566 634 0
634 631 -588 0
-634 -631 -588 0
-634 631 588 0
634 -631 588 0
-504 -566 633 0
-566 -631 633 0
-504 -631 633 0
504 566 -633 0
566 631 -633 0
504 631 -633 0
503 565 -636 0
-503 -565 -636 0
-503 565 636 0
503 -565 636 0
636 633 -587 0
-636 -633 -587 0
-636 633 587 0
636 -633 587 0
-503 -565 635 0
-565 -633 635 0
-503 -633 635 0
503 565 -635 0
565 633 -635 0
503 633 -635 0
502 564 -638 0
-502 -564 -638 0
-502 564 638 0
502 -564 638 0
638 635 -586 0
-638 -635 -586 0
-638 635 586 0
638 -635 586 0
-502 -564 637 0
-564 -635 637 0
-502 -635 637 0
502 564 -637 0
564 635 -637 0
502 635 -637 0
501 563 -640 0
-501 -563 -640 0
-501 563 640 0
501 -563 640 0
640 637 -585 0
-640 -637 -585 0
-640 637 585 0
640 -637 585 0
-501 -563 639 0
-563 -637 639 0
-501 -637 639 0
501 563 -639 0
563 637 -639 0
501 637 -639 0
500 562 -642 0
-500 -562 -642 0
-500 562 642 0
500 -562 642 0
642 639 -584 0
-642 -639 -584 0
-642 639 584 0
642 -639 584 0
-500 -562 641 0
-562 -639 641 0
-500 -639 641 0
500 562 -641 0
562 639 -641 0
500 639 -641 0
499 561 -643 0
-499 -561 -643 0
-499 561 643 0
499 -561 643 0
643 641 -583 0
-643 -641 -583 0
-643 641 583 0
643 -641 583 0
-499 -561 582 0
-561 -641 582 0
-499 -641 582 0
499 561 -582 0
561 641 -582 0
499 641 -582 0
34 -644 0
1 -644 0
-34 -1 644 0
34 -645 0
2 -645 0
-34 -2 645 0
34 -646 0
3 -646 0
-34 -3 646 0
34 -647 0
4 -647 0
-34 -4 647 0
34 -648 0
5 -648 0
-34 -5 648 0
34 -649 0
6 -649 0
-34 -6 649 0
34 -650 0
7 -650 0
-34 -7 650 0
34 -651 0
8 -651 0
-34 -8 651 0
34 -652 0
9 -652 0
-34 -9 652 0
34 -653 0
10 -653 0
-34 -10 653 0
34 -654 0
11 -654 0
-34 -11 654 0
34 -655 0
12 -655 0
-34 -12 655 0
34 -656 0
13 -656 0
-34 -13 656 0
34 -657 0
14 -657 0
-34 -14 657 0
34 -658 0
15 -658 0
-34 -15 658 0
34 -659 0
16 -659 0
-34 -16 659 0
34 -660 0
17 -660 0
-34 -17 660 0
34 -661 0
18 -661 0
-34 -18 661 0
34 -662 0
19 -662 0
-34 -19 662 0
34 -663 0
20 -663 0
-34 -20 663 0
34 -664 0
21 -664 0
-34 -21 664 0
602 664 -686 0
-602 -664 -686 0
-602 664 686 0
602 -664 686 0
602 -687 0
664 -687 0
-602 -664 687 0
601 663 -689 0
-601 -663 -689 0
-601 663 689 0
601 -663 689 0
689 687 -685 0
-689 -687 -685 0
-689 687 685 0
689 -687 685 0
-601 -663 688 0
-663 -687 688 0
-601 -687 688 0
601 663 -688 0
663 687 -688 0
601 687 -688 0
600 662 -691 0
-600 -662 -691 0
-600 662 691 0
600 -662 691 0
691 688 -684 0
-691 -688 -684 0
-691 688 684 0
691 -688 684 0
-600 -662 690 0
-662 -688 690 0
-600 -688 690 0
600 662 -690 0
662 688 -690 0
600 688 -690 0
599 661 -693 0
-599 -661 -693 0
-599 661 693 0
599 -661 693 0
693 690 -683 0
-693 -690 -683 0
-693 690 683 0
693 -690 683 0
-599 -661 692 0
-661 -690 692 0
-599 -690 692 0
599 661 -692 0
661 690 -692 0
599 690 -692 0
598 660 -695 0
-598 -660 -695 0
-598 660 695 0
598 -660 695 0
695 692 -682 0
-695 -692 -682 0
-695 692 682 0
695 -692 682 0
-598 -660 694 0
-660 -692 694 0
-598 -692 694 0
598 660 -694 0
660 692 -694 0
598 692 -694 0
597 659 -697 0
-597 -659 -697 0
-597 659 697 0
597 -659 697 0
697 694 -681 0
-697 -694 -681 0
-697 694 681 0
697 -694 681 0
-597 -659 696 0
-659 -694 696 0
-597 -694 696 0
597 659 -696 0
659 694 -696 0
597 694 -696 0
596 658 -699 0
-596 -658 -699 0
-596 658 699 0
596 -658 699 0
699 696 -680 0
-699 -696 -680 0
-699 696 680 0
699 -696 680 0
-596 -658 698 0
-658 -696 698 0
-596 -696 698 0
596 658 -698 0
658 696 -698 0
596 696 -698 0
595 657 -701 0
-595 -657 -701 0
-595 657 701 0
595 -657 701 0
701 698 -679 0
-701 -698 -679 0
-701 698 679 0
701 -698 679 0
-595 -657 700 0
-657 -698 700 0
-595 -698 700 0
595 657 -700 0
657 698 -700 0
595 698 -700 0
594 656 -703 0
-594 -656 -703 0
-594 656 703 0
594 -656 703 0
703 700 -678 0
-703 -700 -678 0
-703 700 678 0
703 -700 678 0
-594 -656 702 0
-656 -700 702 0
-594 -700 702 0
594 656 -702 0
656 700 -702 0
594 700 -702 0
593 655 -705 0
-593 -655 -705 0
-593 655 705 0
593 -655 705 0
705 702 -677 0
-705 -702 -677 0
-705 702 677 0
705 -702 677 0
-593 -655 704 0
-655 -702 704 0
-593 -702 704 0
593 655 -704 0
655 702 -704 0
593 702 -704 0
592 654 -707 0
-592 -654 -707 0
-592 654 707 0
592 -654 707 0
707 704 -676 0
-707 -704 -676 0
-707 704 676 0
707 -704 676 0
-592 -654 706 0
-654 -704 706 0
-592 -704 706 0
592 654 -706 0
654 704 -706 0
592 704 -706 0
591 653 -709 0
-591 -653 -709 0
-591 653 709 0
591 -653 709 0
709 706 -675 0
-709 -706 -675 0
-709 706 675 0
709 -706 675 0
-591 -653 708 0
-653 -706 708 0
-591 -706 708 0
591 653 -708 0
653 706 -708 0
591 706 -708 0
590 652 -711 0
-590 -652 -711 0
-590 652 711 0
590 -652 711 0
711 708 -674 0
-711 -708 -674 0
-711 708 674 0
711 -708 674 0
-590 -652 710 0
-652 -708 710 0
-590 -708 710 0
590 652 -710 0
652 708 -710 0
590 708 -710 0
589 651 -713 0
-589 -651 -713 0
-589 651 713 0
589 -651 713 0
713 710 -673 0
-713 -710 -673 0
-713 710 673 0
713 -710 673 0
-589 -651 712 0
-651 -710 712 0
-589 -710 712 0
589 651 -712 0
651 710 -712 0
589 710 -712 0
588 650 -715 0
-588 -650 -715 0
-588 650 715 0
588 -650 715 0
715 712 -672 0
-715 -712 -672 0
-715 712 672 0
715 -712 672 0
-588 -650 714 0
-650 -712 714 0
-588 -712 714 0
588 650 -714 0
650 712 -714 0
588 712 -714 0
587 649 -717 0
-587 -649 -717 0
-587 649 717 0
587 -649 717 0
717 714 -671 0
-717 -714 -671 0
-717 714 671 0
717 -714 671 0
-587 -649 716 0
-649 -714 716 0
-587 -714 716 0
587 649 -716 0
649 714 -716 0
587 714 -716 0
586 648 -719 0
-586 -648 -719 0
-586 648 719 0
586 -648 719 0
719 716 -670 0
-719 -716 -670 0
-719 716 670 0
719 -716 670 0
-586 -648 718 0
-648 -716 718 0
-586 -716 718 0
586 648 -718 0
648 716 -718 0
586 716 -718 0
585 647 -721 0
-585 -647 -721 0
-585 647 721 0
585 -647 721 0
721 718 -669 0
-721 -718 -669 0
-721 718 669 0
721 -718 669 0
-585 -647 720 0
-647 -718 720 0
-585 -718 720 0
585 647 -720 0
647 718 -720 0
585 718 -720 0
584 646 -723 0
-584 -646 -723 0
-584 646 723 0
584 -646 723 0
723 720 -668 0
-723 -720 -668 0
-723 720 668 0
723 -720 668 0
-584 -646 722 0
-646 -720 722 0
-584 -720 722 0
584 646 -722 0
646 720 -722 0
584 720 -722 0
583 645 -725 0
-583 -645 -725 0
-583 645 725 0
583 -645 725 0
725 722 -667 0
-725 -722 -667 0
-725 722 667 0
725 -722 667 0
-583 -645 724 0
-645 -722 724 0
-583 -722 724 0
583 645 -724 0
645 722 -724 0
583 722 -724 0
582 644 -726 0
-582 -644 -726 0
-582 644 726 0
582 -644 726 0
726 724 -666 0
-726 -724 -666 0
-726 724 666 0
726 -724 666 0
-582 -644 665 0
-644 -724 665 0
-582 -724 665 0
582 644 -665 0
644 724 -665 0
582 724 -665 0
33 -727 0
1 -727 0
-33 -1 727 0
33 -728 0
2 -728 0
-33 -2 728 0
33 -729 0
3 -729 0
-33 -3 729 0
33 -730 0
4 -730 0
-33 -4 730 0
33 -731 0
5 -731 0
-33 -5 731 0
33 -732 0
6 -732 0
-33 -6 732 0
33 -733 0
7 -733 0
-33 -7 733 0
33 -734 0
8 -734 0
-33 -8 734 0
33 -735 0
9 -735 0
-33 -9 735 0
33 -736 0
10 -736 0
-33 -10 736 0
33 -737 0
11 -737 0
-33 -11 737 0
33 -738 0
12 -738 0
-33 -12 738 0
33 -739 0
13 -739 0
-33 -13 739 0
33 -740 0
14 -740 0
-33 -14 740 0
33 -741 0
15 -741 0
-33 -15 741 0
33 -742 0
16 -742 0
-33 -16 742 0
33 -743 0
17 -743 0
-33 -17 743 0
33 -744 0
18 -744 0
-33 -18 744 0
33 -745 0
19 -745 0
-33 -19 745 0
33 -746 0
20 -746 0
-33 -20 746 0
33 -747 0
21 -747 0
-33 -21 747 0
685 747 -769 0
-685 -747 -769 0
-685 747 769 0
685 -747 769 0
685 -770 0
747 -770 0
-685 -747 770 0
684 746 -772 0
-684 -746 -772 0
-684 746 772 0
684 -746 772 0
772 770 -768 0
-772 -770 -768 0
-772 770 768 0
772 -770 768 0
-684 -746 771 0
-746 -770 771 0
-684 -770 771 0
684 746 -771 0
746 770 -771 0
684 770 -771 0
683 745 -774 0
-683 -745 -774 0
-683 745 774 0
683 -745 774 0
774 771 -767 0
-774 -771 -767 0
-774 771 767 0
774 -771 767 0
-683 -745 773 0
-745 -771 773 0
-683 -771 773 0
683 745 -773 0
745 771 -773 0
683 771 -773 0
682 744 -776 0
-682 -744 -776 0
-682 744 776 0
682 -744 776 0
776 773 -766 0
-776 -773 -766 0
-776 773 766 0
776 -773 766 0
-682 -744 775 0
-744 -773 775 0
-682 -773 775 0
682 744 -775 0
744 773 -775 0
682 773 -775 0
681 743 -778 0
-681 -743 -778 0
-681 743 778 0
681 -743 778 0
778 775 -765 0
-778 -775 -765 0
-778 775 765 0
778 -775 765 0
-681 -743 777 0
-743 -775 777 0
-681 -775 777 0
681 743 -777 0
743 775 -777 0
681 775 -777 0
680 742 -780 0
-680 -742 -780 0
-680 742 780 0
680 -742 780 0
780 777 -764 0
-780 -777 -764 0
-780 777 764 0
780 -777 764 0
-680 -742 779 0
-742 -777 779 0
-680 -777 779 0
680 742 -779 0
742 777 -779 0
680 777 -779 0
679 741 -782 0
-679 -741 -782 0
-679 741 782 0
679 -741 782 0
782 779 -763 0
-782 -779 -763 0
-782 779 763 0
782 -779 763 0
-679 -741 781 0
-741 -779 781 0
-679 -779 781 0
679 741 -781 0
741 779 -781 0
679 779 -781 0
678 740 -784 0
-678 -740 -784 0
-678 740 784 0
678 -740 784 0
784 781 -762 0
-784 -781 -762 0
-784 781 762 0
784 -781 762 0
-678 -740 783 0
-740 -781 783 0
-678 -781 783 0
678 740 -783 0
740 781 -783 0
678 781 -783 0
677 739 -786 0
-677 -739 -786 0
-677 739 786 0
677 -739 786 0
786 783 -761 0
-786 -783 -761 0
-786 783 761 0
786 -783 761 0
-677 -739 785 0
-739 -783 785 0
-677 -783 785 0
677 739 -785 0
739 783 -785 0
677 783 -785 0
676 738 -788 0
-676 -738 -788 0
-676 738 788 0
676 -738 788 0
788 785 -760 0
-788 -785 -760 0
-788 785 760 0
788 -785 760 0
-676 -738 787 0
-738 -785 787 0
-676 -785 787 0
676 738 -787 0
738 785 -787 0
676 785 -787 0
675 737 -790 0
-675 -737 -790 0
-675 737 790 0
675 -737 790 0
790 787 -759 0
-790 -787 -759 0
-790 787 759 0
790 -787 759 0
-675 -737 789 0
-737 -787 789 0
-675 -787 789 0
675 737 -789 0
737 787 -789 0
675 787 -789 0
674 736 -792 0
-674 -736 -792 0
-674 736 792 0
674 -736 792 0
792 789 -758 0
-792 -789 -758 0
-792 789 758 0
792 -789 758 0
-674 -736 791 0
-736 -789 791 0
-674 -789 791 0
674 736 -791 0
736 789 -791 0
674 789 -791 0
673 735 -794 0
-673 -735 -794 0
-673 735 794 0
673 -735 794 0
794 791 -757 0
-794 -791 -757 0
-794 791 757 0
794 -791 757 0
-673 -735 793 0
-735 -791 793 0
-673 -791 793 0
673 735 -793 0
735 791 -793 0
673 791 -793 0
672 734 -796 0
-672 -734 -796 0
-672 734 796 0
672 -734 796 0
796 793 -756 0
-796 -793 -756 0
-796 793 756 0
796 -793 756 0
-672 -734 795 0
-734 -793 795 0
-672 -793 795 0
672 734 -795 0
734 793 -795 0
672 793 -795 0
671 733 -798 0
-671 -733 -798 0
-671 733 798 0
671 -733 798 0
798 795 -755 0
-798 -795 -755 0
-798 795 755 0
798 -795 755 0
-671 -733 797 0
-733 -795 797 0
-671 -795 797 0
671 733 -797 0
733 795 -797 0
671 795 -797 0
670 732 -800 0
-670 -732 -800 0
-670 732 800 0
670 -732 800 0
800 797 -754 0
-800 -797 -754 0
-800 797 754 0
800 -797 754 0
-670 -732 799 0
-732 -797 799 0
-670 -797 799 0
670 732 -799 0
732 797 -799 0
670 797 -799 0
669 731 -802 0
-669 -731 -802 0
-669 731 802 0
669 -731 802 0
802 799 -753 0
-802 -799 -753 0
-802 799 753 0
802 -799 753 0
-669 -731 801 0
-731 -799 801 0
-669 -799 801 0
669 731 -801 0
731 799 -801 0
669 799 -801 0
668 730 -804 0
-668 -730 -804 0
-668 730 804 0
668 -730 804 0
804 801 -752 0
-804 -801 -752 0
-804 801 752 0
804 -801 752 0
-668 -730 803 0
-730 -801 803 0
-668 -801 803 0
668 730 -803 0
730 801 -803 0
668 801 -803 0
667 729 -806 0
-667 -729 -806 0
-667 729 806 0
667 -729 806 0
806 803 -751 0
-806 -803 -751 0
-806 803 751 0
806 -803 751 0
-667 -729 805 0
-729 -803 805 0
-667 -803 805 0
667 729 -805 0
729 803 -805 0
667 803 -805 0
666 728 -808 0
-666 -728 -808 0
-666 728 808 0
666 -728 808 0
808 805 -750 0
-808 -805 -750 0
-808 805 750 0
808 -805 750 0
-666 -728 807 0
-728 -805 807 0
-666 -805 807 0
666 728 -807 0
728 805 -807 0
666 805 -807 0
665 727 -809 0
-665 -727 -809 0
-665 727 809 0
665 -727 809 0
809 807 -749 0
-809 -807 -749 0
-809 807 749 0
809 -807 749 0
-665 -727 748 0
-727 -807 748 0
-665 -807 748 0
665 727 -748 0
727 807 -748 0
665 807 -748 0
32 -810 0
1 -810 0
-32 -1 810 0
32 -811 0
2 -811 0
-32 -2 811 0
32 -812 0
3 -812 0
-32 -3 812 0
32 -813 0
4 -813 0
-32 -4 813 0
32 -814 0
5 -814 0
-32 -5 814 0
32 -815 0
6 -815 0
-32 -6 815 0
32 -816 0
7 -816 0
-32 -7 816 0
32 -817 0
8 -817 0
-32 -8 817 0
32 -818 0
9 -818 0
-32 -9 818 0
32 -819 0
10 -819 0
-32 -10 819 0
32 -820 0
11 -820 0
-32 -11 820 0
32 -821 0
12 -821 0
-32 -12 821 0
32 -822 0
13 -822 0
-32 -13 822 0
32 -823 0
14 -823 0
-32 -14 823 0
32 -824 0
15 -824 0
-32 -15 824 0
32 -825 0
16 -825 0
-32 -16 825 0
32 -826 0
17 -826 0
-32 -17 826 0
32 -827 0
18 -827 0
-32 -18 827 0
32 -828 0
19 -828 0
-32 -19 828 0
32 -829 0
20 -829 0
-32 -20 829 0
32 -830 0
21 -830 0
-32 -21 830 0
768 830 -852 0
-768 -830 -852 0
-768 830 852 0
768 -830 852 0
768 -853 0
830 -853 0
-768 -830 853 0
767 829 -855 0
-767 -829 -855 0
-767 829 855 0
767 -829 855 0
855 853 -851 0
-855 -853 -851 0
-855 853 851 0
855 -853 851 0
-767 -829 854 0
-829 -853 854 0
-767 -853 854 0
767 829 -854 0
829 853 -854 0
767 853 -854 0
766 828 -857 0
-766 -828 -857 0
-766 828 857 0
766 -828 857 0
857 854 -850 0
-857 -854 -850 0
-857 854 850 0
857 -854 850 0
-766 -828 856 0
-828 -854 856 0
-766 -854 856 0
766 828 -856 0
828 854 -856 0
766 854 -856 0
765 827 -859 0
-765 -827 -859 0
-765 827 859 0
765 -827 859 0
859 856 -849 0
-859 -856 -849 0
-859 856 849 0
859 -856 849 0
-765 -827 858 0
-827 -856 858 0
-765 -856 858 0
765 827 -858 0
827 856 -858 0
765 856 -858 0
764 826 -861 0
-764 -826 -861 0
-764 826 861 0
764 -826 861 0
861 858 -848 0
-861 -858 -848 0
-861 858 848 0
861 -858 848 0
-764 -826 860 0
-826 -858 860 0
-764 -858 860 0
764 826 -860 0
826 858 -860 0
764 858 -860 0
763 825 -863 0
-763 -825 -863 0
-763 825 863 0
763 -825 863 0
863 860 -847 0
-863 -860 -847 0
-863 860 847 0
863 -860 847 0
-763 -825 862 0
-825 -860 862 0
-763 -860 862 0
763 825 -862 0
825 860 -862 0
763 860 -862 0
762 824 -865 0
-762 -824 -865 0
-762 824 865 0
762 -824 865 0
865 862 -846 0
-865 -862 -846 0
-865 862 846 0
865 -862 846 0
-762 -824 864 0
-824 -862 864 0
-762 -862 864 0
762 824 -864 0
824 862 -864 0
762 862 -864 0
761 823 -867 0
-761 -823 -867 0
-761 823 867 0
761 -823 867 0
867 864 -845 0
-867 -864 -845 0
-867 864 845 0
867 -864 845 0
-761 -823 866 0
-823 -864 866 0
-761 -864 866 0
761 823 -866 0
823 864 -866 0
761 864 -866 0
760 822 -869 0
-760 -822 -869 0
-760 822 869 0
760 -822 869 0
869 866 -844 0
-869 -866 -844 0
-869 866 844 0
869 -866 844 0
-760 -822 868 0
-822 -866 868 0
-760 -866 868 0
760 822 -868 0
822 866 -868 0
760 866 -868 0
759 821 -871 0
-759 -821 -871 0
-759 821 871 0
759 -821 871 0
871 868 -843 0
-871 -868 -843 0
-871 868 843 0
871 -868 843 0
-759 -821 870 0
-821 -868 870 0
-759 -868 870 0
759 821 -870 0
821 868 -870 0
759 868 -870 0
758 820 -873 0
-758 -820 -873 0
-758 820 873 0
758 -820 873 0
873 870 -842 0
-873 -870 -842 0
-873 870 842 0
873 -870 842 0
-758 -820 872 0
-820 -870 872 0
-758 -870 872 0
758 820 -872 0
820 870 -872 0
758 870 -872 0
757 819 -875 0
-757 -819 -875 0
-757 819 875 0
757 -819 875 0
875 872 -841 0
-875 -872 -841 0
-875 872 841 0
875 -872 841 0
-757 -819 874 0
-819 -872 874 0
-757 -872 874 0
757 819 -874 0
819 872 -874 0
757 872 -874 0
756 818 -877 0
-756 -818 -877 0
-756 818 877 0
756 -818 877 0
877 874 -840 0
-877 -874 -840 0
-877 874 840 0
877 -874 840 0
-756 -818 876 0
-818 -874 876 0
-756 -874 876 0
756 818 -876 0
818 874 -876 0
756 874 -876 0
755 817 -879 0
-755 -817 -879 0
-755 817 879 0
755 -817 879 0
879 876 -839 0
-879 -876 -839 0
-879 876 839 0
879 -876 839 0
-755 -817 878 0
-817 -876 878 0
-755 -876 878 0
755 817 -878 0
817 876 -878 0
755 876 -878 0
754 816 -881 0
-754 -816 -881 0
-754 816 881 0
754 -816 881 0
881 878 -838 0
-881 -878 -838 0
-881 878 838 0
881 -878 838 0
-754 -816 880 0
-816 -878 880 0
-754 -878 880 0
754 816 -880 0
816 878 -880 0
754 878 -880 0
753 815 -883 0
-753 -815 -883 0
-753 815 883 0
753 -815 883 0
883 880 -837 0
-883 -880 -837 0
-883 880 837 0
883 -880 837 0
-753 -815 882 0
-815 -880 882 0
-753 -880 882 0
753 815 -882 0
815 880 -882 0
753 880 -882 0
752 814 -885 0
-752 -814 -885 0
-752 814 885 0
752 -814 885 0
885 882 -836 0
-885 -882 -836 0
-885 882 836 0
885 -882 836 0
-752 -814 884 0
-814 -882 884 0
-752 -882 884 0
752 814 -884 0
814 882 -884 0
752 882 -884 0
751 813 -887 0
-751 -813 -887 0
-751 813 887 0
751 -813 887 0
887 884 -835 0
-887 -884 -835 0
-887 884 835 0
887 -884 835 0
-751 -813 886 0
-813 -884 886 0
-751 -884 886 0
751 813 -886 0
813 884 -886 0
751 884 -886 0
750 812 -889 0
-750 -812 -889 0
-750 812 889 0
750 -812 889 0
889 886 -834 0
-889 -886 -834 0
-889 886 834 0
889 -886 834 0
-750 -812 888 0
-812 -886 888 0
-750 -886 888 0
750 812 -888 0
812 886 -888 0
750 886 -888 0
749 811 -891 0
-749 -811 -891 0
-749 811 891 0
749 -811 891 0
891 888 -833 0
-891 -888 -833 0
-891 888 833 0
891 -888 833 0
-749 -811 890 0
-811 -888 890 0
-749 -888 890 0
749 811 -890 0
811 888 -890 0
749 888 -890 0
748 810 -892 0
-748 -810 -892 0
-748 810 892 0
748 -810 892 0
892 890 -832 0
-892 -890 -832 0
-892 890 832 0
892 -890 832 0
-748 -810 831 0
-810 -890 831 0
-748 -890 831 0
748 810 -831 0
810 890 -831 0
748 890 -831 0
31 -893 0
1 -893 0
-31 -1 893 0
31 -894 0
2 -894 0
-31 -2 894 0
31 -895 0
3 -895 0
-31 -3 895 0
31 -896 0
4 -896 0
-31 -4 896 0
31 -897 0
5 -897 0
-31 -5 897 0
31 -898 0
6 -898 0
-31 -6 898 0
31 -899 0
7 -899 0
-31 -7 899 0
31 -900 0
8 -900 0
-31 -8 900 0
31 -901 0
9 -901 0
-31 -9 901 0
31 -902 0
10 -902 0
-31 -10 902 0
31 -903 0
11 -903 0
-31 -11 903 0
31 -904 0
12 -904 0
-31 -12 904 0
31 -905 0
13 -905 0
-31 -13 905 0
31 -906 0
14 -906 0
-31 -14 906 0
31 -907 0
15 -907 0
-31 -15 907 0
31 -908 0
16 -908 0
-31 -16 908 0
31 -909 0
17 -909 0
-31 -17 909 0
31 -910 0
18 -910 0
-31 -18 910 0
31 -911 0
19 -911 0
-31 -19 911 0
31 -912 0
20 -912 0
-31 -20 912 0
31 -913 0
21 -913 0
-31 -21 913 0
851 913 -935 0
-851 -913 -935 0
-851 913 935 0
851 -913 935 0
851 -936 0
913 -936 0
-851 -913 936 0
850 912 -938 0
-850 -912 -938 0
-850 912 938 0
850 -912 938 0
938 936 -934 0
-938 -936 -934 0
-938 936 934 0
938 -936 934 0
-850 -912 937 0
-912 -936 937 0
-850 -936 937 0
850 912 -937 0
912 936 -937 0
850 936 -937 0
849 911 -940 0
-849 -911 -940 0
-849 911 940 0
849 -911 940 0
940 937 -933 0
-940 -937 -933 0
-940 937 933 0
940 -937 933 0
-849 -911 939 0
-911 -937 939 0
-849 -937 939 0
849 911 -939 0
911 937 -939 0
849 937 -939 0
848 910 -942 0
-848 -910 -942 0
-848 910 942 0
848 -910 942 0
942 939 -932 0
-942 -939 -932 0
-942 939 932 0
942 -939 932 0
-848 -910 941 0
-910 -939 941 0
-848 -939 941 0
848 910 -941 0
910 939 -941 0
848 939 -941 0
847 909 -944 0
-847 -909 -944 0
-847 909 944 0
847 -909 944 0
944 941 -931 0
-944 -941 -931 0
-944 941 931 0
944 -941 931 0
-847 -909 943 0
-909 -941 943 0
-847 -941 943 0
847 909 -943 0
909 941 -943 0
847 941 -943 0
846 908 -946 0
-846 -908 -946 0
-846 908 946 0
846 -908 946 0
946 943 -930 0
-946 -943 -930 0
-946 943 930 0
946 -943 930 0
-846 -908 945 0
-908 -943 945 0
-846 -943 945 0
846 908 -945 0
908 943 -945 0
846 943 -945 0
845 907 -948 0
-845 -907 -948 0
-845 907 948 0
845 -907 948 0
948 945 -929 0
-948 -945 -929 0
-948 945 929 0
948 -945 929 0
-845 -907 947 0
-907 -945 947 0
-845 -945 947 0
845 907 -947 0
907 945 -947 0
845 945 -947 0
844 906 -950 0
-844 -906 -950 0
-844 906 950 0
844 -906 950 0
950 947 -928 0
-950 -947 -928 0
-950 947 928 0
950 -947 928 0
-844 -906 949 0
-906 -947 949 0
-844 -947 949 0
844 906 -949 0
906 947 -949 0
844 947 -949 0
843 905 -952 0
-843 -905 -952 0
-843 905 952 0
843 -905 952 0
952 949 -927 0
-952 -949 -927 0
-952 949 927 0
952 -949 927 0
-843 -905 951 0
-905 -949 951 0
-843 -949 951 0
843 905 -951 0
905 949 -951 0
843 949 -951 0
842 904 -954 0
-842 -904 -954 0
-842 904 954 0
842 -904 954 0
954 951 -926 0
-954 -951 -926 0
-954 951 926 0
954 -951 926 0
-842 -904 953 0
-904 -951 953 0
-842 -951 953 0
842 904 -953 0
904 951 -953 0
842 951 -953 0
841 903 -956 0
-841 -903 -956 0
-841 903 956 0
841 -903 956 0
956 953 -925 0
-956 -953 -925 0
-956 953 925 0
956 -953 925 0
-841 -903 955 0
-903 -953 955 0
-841 -953 955 0
841 903 -955 0
903 953 -955 0
841 953 -955 0
840 902 -958 0
-840 -902 -958 0
-840 902 958 0
840 -902 958 0
958 955 -924 0
-958 -955 -924 0
-958 955 924 0
958 -955 924 0
-840 -902 957 0
-902 -955 957 0
-840 -955 957 0
840 902 -957 0
902 955 -957 0
840 955 -957 0
839 901 -960 0
-839 -901 -960 0
-839 901 960 0
839 -901 960 0
960 957 -923 0
-960 -957 -923 0
-960 957 923 0
960 -957 923 0
-839 -901 959 0
-901 -957 959 0
-839 -957 959 0
839 901 -959 0
901 957 -959 0
839 957 -959 0
838 900 -962 0
-838 -900 -962 0
-838 900 962 0
838 -900 962 0
962 959 -922 0
-962 -959 -922 0
-962 959 922 0
962 -959 922 0
-838 -900 961 0
-900 -959 961 0
-838 -959 961 0
838 900 -961 0
900 959 -961 0
838 959 -961 0
837 899 -964 0
-837 -899 -964 0
-837 899 964 0
837 -899 964 0
964 961 -921 0
-964 -961 -921 0
-964 961 921 0
964 -961 921 0
-837 -899 963 0
-899 -961 963 0
-837 -961 963 0
837 899 -963 0
899 961 -963 0
837 961 -963 0
836 898 -966 0
-836 -898 -966 0
-836 898 966 0
836 -898 966 0
966 963 -920 0
-966 -963 -920 0
-966 963 920 0
966 -963 920 0
-836 -898 965 0
-898 -963 965 0
-836 -963 965 0
836 898 -965 0
898 963 -965 0
836 963 -965 0
835 897 -968 0
-835 -897 -968 0
-835 897 968 0
835 -897 968 0
968 965 -919 0
-968 -965 -919 0
-968 965 919 0
968 -965 919 0
-835 -897 967 0
-897 -965 967 0
-835 -965 967 0
835 897 -967 0
897 965 -967 0
835 965 -967 0
834 896 -970 0
-834 -896 -970 0
-834 896 970 0
834 -896 970 0
970 967 -918 0
-970 -967 -918 0
-970 967 918 0
970 -967 918 0
-834 -896 969 0
-896 -967 969 0
-834 -967 969 0
834 896 -969 0
896 967 -969 0
834 967 -969 0
833 895 -972 0
-833 -895 -972 0
-833 895 972 0
833 -895 972 0
972 969 -917 0
-972 -969 -917 0
-972 969 917 0
972 -969 917 0
-833 -895 971 0
-895 -969 971 0
-833 -969 971 0
833 895 -971 0
895 969 -971 0
833 969 -971 0
832 894 -974 0
-832 -894 -974 0
-832 894 974 0
832 -894 974 0
974 971 -916 0
-974 -971 -916 0
-974 971 916 0
974 -971 916 0
-832 -894 973 0
-894 -971 973 0
-832 -971 973 0
832 894 -973 0
894 971 -973 0
832 971 -973 0
831 893 -975 0
-831 -893 -975 0
-831 893 975 0
831 -893 975 0
975 973 -915 0
-975 -973 -915 0
-975 973 915 0
975 -973 915 0
-831 -893 914 0
-893 -973 914 0
-831 -973 914 0
831 893 -914 0
893 973 -914 0
831 973 -914 0
30 -976 0
1 -976 0
-30 -1 976 0
30 -977 0
2 -977 0
-30 -2 977 0
30 -978 0
3 -978 0
-30 -3 978 0
30 -979 0
4 -979 0
-30 -4 979 0
30 -980 0
5 -980 0
-30 -5 980 0
30 -981 0
6 -981 0
-30 -6 981 0
30 -982 0
7 -982 0
-30 -7 982 0
30 -983 0
8 -983 0
-30 -8 983 0
30 -984 0
9 -984 0
-30 -9 984 0
30 -985 0
10 -985 0
-30 -10 985 0
30 -986 0
11 -986 0
-30 -11 986 0
30 -987 0
12 -987 0
-30 -12 987 0
30 -988 0
13 -988 0
-30 -13 988 0
30 -989 0
14 -989 0
-30 -14 989 0
30 -990 0
15 -990 0
-30 -15 990 0
30 -991 0
16 -991 0
-30 -16 991 0
30 -992 0
17 -992 0
-30 -17 992 0
30 -993 0
18 -993 0
-30 -18 993 0
30 -994 0
19 -994 0
-30 -19 994 0
30 -995 0
20 -995 0
-30 -20 995 0
30 -996 0
21 -996 0
-30 -21 996 0
934 996 -1018 0
-934 -996 -1018 0
-934 996 1018 0
934 -996 1018 0
934 -1019 0
996 -1019 0
-934 -996 1019 0
933 995 -1021 0
-933 -995 -1021 0
-933 995 1021 0
933 -995 1021 0
1021 1019 -1017 0
-1021 -1019 -1017 0
-1021 1019 1017 0
1021 -1019 1017 0
-933 -995 1020 0
-995 -1019 1020 0
-933 -1019 1020 0
933 995 -1020 0
995 1019 -1020 0
933 1019 -1020 0
932 994 -1023 0
-932 -994 -1023 0
-932 994 1023 0
932 -994 1023 0
1023 1020 -1016 0
-1023 -1020 -1016 0
-1023 1020 1016 0
1023 -1020 1016 0
-932 -994 1022 0
-994 -1020 1022 0
-932 -1020 1022 0
932 994 -1022 0
994 1020 -1022 0
932 1020 -1022 0
931 993 -1025 0
-931 -993 -1025 0
-931 993 1025 0
931 -993 1025 0
1025 1022 -1015 0
-1025 -1022 -1015 0
-1025 1022 1015 0
1025 -1022 1015 0
-931 -993 1024 0
-993 -1022 1024 0
-931 -1022 1024 0
931 993 -1024 0
993 1022 -1024 0
931 1022 -1024 0
930 992 -1027 0
-930 -992 -1027 0
-930 992 1027 0
930 -992 1027 0
1027 1024 -1014 0
-1027 -1024 -1014 0
-1027 1024 1014 0
1027 -1024 1014 0
-930 -992 1026 0
-992 -1024 1026 0
-930 -1024 1026 0
930 992 -1026 0
992 1024 -1026 0
930 1024 -1026 0
929 991 -1029 0
-929 -991 -1029 0
-929 991 1029 0
929 -991 1029 0
1029 1026 -1013 0
-1029 -1026 -1013 0
-1029 1026 1013 0
1029 -1026 1013 0
-929 -991 1028 0
-991 -1026 1028 0
-929 -1026 1028 0
929 991 -1028 0
991 1026 -1028 0
929 1026 -1028 0
928 990 -1031 0
-928 -990 -1031 0
-928 990 1031 0
928 -990 1031 0
1031 1028 -1012 0
-1031 -1028 -1012 0
-1031 1028 1012 0
1031 -1028 1012 0
-928 -990 1030 0
-990 -1028 1030 0
-928 -1028 1030 0
928 990 -1030 0
990 1028 -1030 0
928 1028 -1030 0
927 989 -1033 0
-927 -989 -1033 0
-927 989 1033 0
927 -989 1033 0
1033 1030 -1011 0
-1033 -1030 -1011 0
-1033 1030 1011 0
1033 -1030 1011 0
-927 -989 1032 0
-989 -1030 1032 0
-927 -1030 1032 0
927 989 -1032 0
989 1030 -1032 0
927 1030 -1032 0
926 988 -1035 0
-926 -988 -1035 0
-926 988 1035 0
926 -988 1035 0
1035 1032 -1010 0
-1035 -1032 -1010 0
-1035 1032 1010 0
1035 -1032 1010 0
-926 -988 1034 0
-988 -1032 1034 0
-926 -1032 1034 0
926 988 -1034 0
988 1032 -1034 0
926 1032 -1034 0
925 987 -1037 0
-925 -987 -1037 0
-925 987 1037 0
925 -987 1037 0
1037 1034 -1009 0
-1037 -1034 -1009 0
-1037 1034 1009 0
1037 -1034 1009 0
-925 -987 1036 0
-987 -1034 1036 0
-925 -1034 1036 0
925 987 -1036 0
987 1034 -1036 0
925 1034 -1036 0
924 986 -1039 0
-924 -986 -1039 0
-924 986 1039 0
924 -986 1039 0
1039 1036 -1008 0
-1039 -1036 -1008 0
-1039 1036 1008 0
1039 -1036 1008 0
-924 -986 1038 0
-986 -1036 1038 0
-924 -1036 1038 0
924 986 -1038 0
986 1036 -1038 0
924 1036 -1038 0
923 985 -1041 0
-923 -985 -1041 0
-923 985 1041 0
923 -985 1041 0
1041 1038 -1007 0
-1041 -1038 -1007 0
-1041 1038 1007 0
1041 -1038 1007 0
-923 -985 1040 0
-985 -1038 1040 0
-923 -1038 1040 0
923 985 -1040 0
985 1038 -1040 0
923 1038 -1040 0
922 984 -1043 0
-922 -984 -1043 0
-922 984 1043 0
922 -984 1043 0
1043 1040 -1006 0
-1043 -1040 -1006 0
-1043 1040 1006 0
1043 -1040 1006 0
-922 -984 1042 0
-984 -1040 1042 0
-922 -1040 1042 0
922 984 -1042 0
984 1040 -1042 0
922 1040 -1042 0
921 983 -1045 0
-921 -983 -1045 0
-921 983 1045 0
921 -983 1045 0
1045 1042 -1005 0
-1045 -1042 -1005 0
-1045 1042 1005 0
1045 -1042 1005 0
-921 -983 1044 0
-983 -1042 1044 0
-921 -1042 1044 0
921 983 -1044 0
983 1042 -1044 0
921 1042 -1044 0
920 982 -1047 0
-920 -982 -1047 0
-920 982 1047 0
920 -982 1047 0
1047 1044 -1004 0
-1047 -1044 -1004 0
-1047 1044 1004 0
1047 -1044 1004 0
-920 -982 1046 0
-982 -1044 1046 0
-920 -1044 1046 0
920 982 -1046 0
982 1044 -1046 0
920 1044 -1046 0
919 981 -1049 0
-919 -981 -1049 0
-919 981 1049 0
919 -981 1049 0
1049 1046 -1003 0
-1049 -1046 -1003 0
-1049 1046 1003 0
1049 -1046 1003 0
-919 -981 1048 0
-981 -1046 1048 0
-919 -1046 1048 0
919 981 -1048 0
981 1046 -1048 0
919 1046 -1048 0
918 980 -1051 0
-918 -980 -1051 0
-918 980 1051 0
918 -980 1051 0
1051 1048 -1002 0
-1051 -1048 -1002 0
-1051 1048 1002 0
1051 -1048 1002 0
-918 -980 1050 0
-980 -1048 1050 0
-918 -1048 1050 0
918 980 -1050 0
980 1048 -1050 0
918 1048 -1050 0
917 979 -1053 0
-917 -979 -1053 0
-917 979 1053 0
917 -979 1053 0
1053 1050 -1001 0
-1053 -1050 -1001 0
-1053 1050 1001 0
1053 -1050 1001 0
-917 -979 1052 0
-979 -1050 1052 0
-917 -1050 1052 0
917 979 -1052 0
979 1050 -1052 0
917 1050 -1052 0
916 978 -1055 0
-916 -978 -1055 0
-916 978 1055 0
916 -978 1055 0
1055 1052 -1000 0
-1055 -1052 -1000 0
-1055 1052 1000 0
1055 -1052 1000 0
-916 -978 1054 0
-978 -1052 1054 0
-916 -1052 1054 0
916 978 -1054 0
978 1052 -1054 0
916 1052 -1054 0
915 977 -1057 0
-915 -977 -1057 0
-915 977 1057 0
915 -977 1057 0
1057 1054 -999 0
-1057 -1054 -999 0
-1057 1054 999 0
1057 -1054 999 0
-915 -977 1056 0
-977 -1054 1056 0
-915 -1054 1056 0
915 977 -1056 0
977 1054 -1056 0
915 1054 -1056 0
914 976 -1058 0
-914 -976 -1058 0
-914 976 1058 0
914 -976 1058 0
1058 1056 -998 0
-1058 -1056 -998 0
-1058 1056 998 0
1058 -1056 998 0
-914 -976 997 0
-976 -1056 997 0
-914 -1056 997 0
914 976 -997 0
976 1056 -997 0
914 1056 -997 0
29 -1059 0
1 -1059 0
-29 -1 1059 0
29 -1060 0
2 -1060 0
-29 -2 1060 0
29 -1061 0
3 -1061 0
-29 -3 1061 0
29 -1062 0
4 -1062 0
-29 -4 1062 0
29 -1063 0
5 -1063 0
-29 -5 1063 0
29 -1064 0
6 -1064 0
-29 -6 1064 0
29 -1065 0
7 -1065 0
-29 -7 1065 0
29 -1066 0
8 -1066 0
-29 -8 1066 0
29 -1067 0
9 -1067 0
-29 -9 1067 0
29 -1068 0
10 -1068 0
-29 -10 1068 0
29 -1069 0
11 -1069 0
-29 -11 1069 0
29 -1070 0
12 -1070 0
-29 -12 1070 0
29 -1071 0
13 -1071 0
-29 -13 1071 0
29 -1072 0
14 -1072 0
-29 -14 1072 0
29 -1073 0
15 -1073 0
-29 -15 1073 0
29 -1074 0
16 -1074 0
-29 -16 1074 0
29 -1075 0
17 -1075 0
-29 -17 1075 0
29 -1076 0
18 -1076 0
-29 -18 1076 0
29 -1077 0
19 -1077 0
-29 -19 1077 0
29 -1078 0
20 -1078 0
-29 -20 1078 0
29 -1079 0
21 -1079 0
-29 -21 1079 0
1017 1079 -1101 0
-1017 -1079 -1101 0
-1017 1079 1101 0
1017 -1079 1101 0
1017 -1102 0
1079 -1102 0
-1017 -1079 1102 0
1016 1078 -1104 0
-1016 -1078 -1104 0
-1016 1078 1104 0
1016 -1078 1104 0
1104 1102 -1100 0
-1104 -1102 -1100 0
-1104 1102 1100 0
1104 -1102 1100 0
-1016 -1078 1103 0
-1078 -1102 1103 0
-1016 -1102 1103 0
1016 1078 -1103 0
1078 1102 -1103 0
1016 1102 -1103 0
1015 1077 -1106 0
-1015 -1077 -1106 0
-1015 1077 1106 0
1015 -1077 1106 0
1106 1103 -1099 0
-1106 -1103 -1099 0
-1106 1103 1099 0
1106 -1103 1099 0
-1015 -1077 1105 0
-1077 -1103 1105 0
-1015 -1103 1105 0
1015 1077 -1105 0
1077 1103 -1105 0
1015 1103 -1105 0
1014 1076 -1108 0
-1014 -1076 -1108 0
-1014 1076 1108 0
1014 -1076 1108 0
1108 1105 -1098 0
-1108 -1105 -1098 0
-1108 1105 1098 0
1108 -1105 1098 0
-1014 -1076 1107 0
-1076 -1105 1107 0
-1014 -1105 1107 0
1014 1076 -1107 0
1076 1105 -1107 0
1014 1105 -1107 0
1013 1075 -1110 0
-1013 -1075 -1110 0
-1013 1075 1110 0
1013 -1075 1110 0
1110 1107 -1097 0
-1110 -1107 -1097 0
-1110 1107 1097 0
1110 -1107 1097 0
-1013 -1075 1109 0
-1075 -1107 1109 0
-1013 -1107 1109 0
1013 1075 -1109 0
1075 1107 -1109 0
1013 1107 -1109 0
1012 1074 -1112 0
-1012 -1074 -1112 0
-1012 1074 1112 0
1012 -1074 1112 0
1112 1109 -1096 0
-1112 -1109 -1096 0
-1112 1109 1096 0
1112 -1109 1096 0
-1012 -1074 1111 0
-1074 -1109 1111 0
-1012 -1109 1111 0
1012 1074 -1111 0
1074 1109 -1111 0
1012 1109 -1111 0
1011 1073 -1114 0
-1011 -1073 -1114 0
-1011 1073 1114 0
1011 -1073 1114 0
1114 1111 -1095 0
-1114 -1111 -1095 0
-1114 1111 1095 0
1114 -1111 1095 0
-1011 -1073 1113 0
-1073 -1111 1113 0
-1011 -1111 1113 0
1011 1073 -1113 0
1073 1111 -1113 0
1011 1111 -1113 0
1010 1072 -1116 0
-1010 -1072 -1116 0
-1010 1072 1116 0
1010 -1072 1116 0
1116 1113 -1094 0
-1116 -1113 -1094 0
-1116 1113 1094 0
1116 -1113 1094 0
-1010 -1072 1115 0
-1072 -1113 1115 0
-1010 -1113 1115 0
1010 1072 -1115 0
1072 1113 -1115 0
1010 1113 -1115 0
1009 1071 -1118 0
-1009 -1071 -1118 0
-1009 1071 1118 0
1009 -1071 1118 0
1118 1115 -1093 0
-1118 -1115 -1093 0
-1118 1115 1093 0
1118 -1115 1093 0
-1009 -1071 1117 0
-1071 -1115 1117 0
-1009 -1115 1117 0
1009 1071 -1117 0
1071 1115 -1117 0
1009 1115 -1117 0
1008 1070 -1120 0
-1008 -1070 -1120 0
-1008 1070 1120 0
1008 -1070 1120 0
1120 1117 -1092 0
-1120 -1117 -1092 0
-1120 1117 1092 0
1120 -1117 1092 0
-1008 -1070 1119 0
-1070 -1117 1119 0
-1008 -1117 1119 0
1008 1070 -1119 0
1070 1117 -1119 0
1008 1117 -1119 0
1007 1069 -1122 0
-1007 -1069 -1122 0
-1007 1069 1122 0
1007 -1069 1122 0
1122 1119 -1091 0
-1122 -1119 -1091 0
-1122 1119 1091 0
1122 -1119 1091 0
-1007 -1069 1121 0
-1069 -1119 1121 0
-1007 -1119 1121 0
1007 1069 -1121 0
1069 1119 -1121 0
1007 1119 -1121 0
1006 1068 -1124 0
-1006 -1068 -1124 0
-1006 1068 1124 0
1006 -1068 1124 0
1124 1121 -1090 0
-1124 -1121 -1090 0
-1124 1121 1090 0
1124 -1121 1090 0
-1006 -1068 1123 0
-1068 -1121 1123 0
-1006 -1121 1123 0
1006 1068 -1123 0
1068 1121 -1123 0
1006 1121 -1123 0
1005 1067 -1126 0
-1005 -1067 -1126 0
-1005 1067 1126 0
1005 -1067 1126 0
1126 1123 -1089 0
-1126 -1123 -1089 0
-1126 1123 1089 0
1126 -1123 1089 0
-1005 -1067 1125 0
-1067 -1123 1125 0
-1005 -1123 1125 0
1005 1067 -1125 0
1067 1123 -1125 0
1005 1123 -1125 0
1004 1066 -1128 0
-1004 -1066 -1128 0
-1004 1066 1128 0
1004 -1066 1128 0
1128 1125 -1088 0
-1128 -1125 -1088 0
-1128 1125 1088 0
1128 -1125 1088 0
-1004 -1066 1127 0
-1066 -1125 1127 0
-1004 -1125 1127 0
1004 1066 -1127 0
1066 1125 -1127 0
1004 1125 -1127 0
1003 1065 -1130 0
-1003 -1065 -1130 0
-1003 1065 1130 0
1003 -1065 1130 0
1130 1127 -1087 0
-1130 -1127 -1087 0
-1130 1127 1087 0
1130 -1127 1087 0
-1003 -1065 1129 0
-1065 -1127 1129 0
-1003 -1127 1129 0
1003 1065 -1129 0
1065 1127 -1129 0
1003 1127 -1129 0
1002 1064 -1132 0
-1002 -1064 -1132 0
-1002 1064 1132 0
1002 -1064 1132 0
1132 1129 -1086 0
-1132 -1129 -1086 0
-1132 1129 1086 0
1132 -1129 1086 0
-1002 -1064 1131 0
-1064 -1129 1131 0
-1002 -1129 1131 0
1002 1064 -1131 0
1064 1129 -1131 0
1002 1129 -1131 0
1001 1063 -1134 0
-1001 -1063 -1134 0
-1001 1063 1134 0
1001 -1063 1134 0
1134 1131 -1085 0
-1134 -1131 -1085 0
-1134 1131 1085 0
1134 -1131 1085 0
-1001 -1063 1133 0
-1063 -1131 1133 0
-1001 -1131 1133 0
1001 1063 -1133 0
1063 1131 -1133 0
1001 1131 -1133 0
1000 1062 -1136 0
-1000 -1062 -1136 0
-1000 1062 1136 0
1000 -1062 1136 0
1136 1133 -1084 0
-1136 -1133 -1084 0
-1136 1133 1084 0
1136 -1133 1084 0
-1000 -1062 1135 0
-1062 -1133 1135 0
-1000 -1133 1135 0
1000 1062 -1135 0
1062 1133 -1135 0
1000 1133 -1135 0
999 1061 -1138 0
-999 -1061 -1138 0
-999 1061 1138 0
999 -1061 1138 0
1138 1135 -1083 0
-1138 -1135 -1083 0
-1138 1135 1083 0
1138 -1135 1083 0
-999 -1061 1137 0
-1061 -1135 1137 0
-999 -1135 1137 0
999 1061 -1137 0
1061 1135 -1137 0
999 1135 -1137 0
998 1060 -1140 0
-998 -1060 -1140 0
-998 1060 1140 0
998 -1060 1140 0
1140 1137 -1082 0
-1140 -1137 -1082 0
-1140 1137 1082 0
1140 -1137 1082 0
-998 -1060 1139 0
-1060 -1137 1139 0
-998 -1137 1139 0
998 1060 -1139 0
1060 1137 -1139 0
998 1137 -1139 0
997 1059 -1141 0
-997 -1059 -1141 0
-997 1059 1141 0
997 -1059 1141 0
1141 1139 -1081 0
-1141 -1139 -1081 0
-1141 1139 1081 0
1141 -1139 1081 0
-997 -1059 1080 0
-1059 -1139 1080 0
-997 -1139 1080 0
997 1059 -1080 0
1059 1139 -1080 0
997 1139 -1080 0
28 -1142 0
1 -1142 0
-28 -1 1142 0
28 -1143 0
2 -1143 0
-28 -2 1143 0
28 -1144 0
3 -1144 0
-28 -3 1144 0
28 -1145 0
4 -1145 0
-28 -4 1145 0
28 -1146 0
5 -1146 0
-28 -5 1146 0
28 -1147 0
6 -1147 0
-28 -6 1147 0
28 -1148 0
7 -1148 0
-28 -7 1148 0
28 -1149 0
8 -1149 0
-28 -8 1149 0
28 -1150 0
9 -1150 0
-28 -9 1150 0
28 -1151 0
10 -1151 0
-28 -10 1151 0
28 -1152 0
11 -1152 0
-28 -11 1152 0
28 -1153 0
12 -1153 0
-28 -12 1153 0
28 -1154 0
13 -1154 0
-28 -13 1154 0
28 -1155 0
14 -1155 0
-28 -14 1155 0
28 -1156 0
15 -1156 0
-28 -15 1156 0
28 -1157 0
16 -1157 0
-28 -16 1157 0
28 -1158 0
17 -1158 0
-28 -17 1158 0
28 -1159 0
18 -1159 0
-28 -18 1159 0
28 -1160 0
19 -1160 0
-28 -19 1160 0
28 -1161 0
20 -1161 0
-28 -20 1161 0
28 -1162 0
21 -1162 0
-28 -21 1162 0
1100 1162 -1184 0
-1100 -1162 -1184 0
-1100 1162 1184 0
1100 -1162 1184 0
1100 -1185 0
1162 -1185 0
-1100 -1162 1185 0
1099 1161 -1187 0
-1099 -1161 -1187 0
-1099 1161 1187 0
1099 -1161 1187 0
1187 1185 -1183 0
-1187 -1185 -1183 0
-1187 1185 1183 0
1187 -1185 1183 0
-1099 -1161 1186 0
-1161 -1185 1186 0
-1099 -1185 1186 0
1099 1161 -1186 0
1161 1185 -1186 0
1099 1185 -1186 0
1098 1160 -1189 0
-1098 -1160 -1189 0
-1098 1160 1189 0
1098 -1160 1189 0
1189 1186 -1182 0
-1189 -1186 -1182 0
-1189 1186 1182 0
1189 -1186 1182 0
-1098 -1160 1188 0
-1160 -1186 1188 0
-1098 -1186 1188 0
1098 1160 -1188 0
1160 1186 -1188 0
1098 1186 -1188 0
1097 1159 -1191 0
-1097 -1159 -1191 0
-1097 1159 1191 0
1097 -1159 1191 0
1191 1188 -1181 0
-1191 -1188 -1181 0
-1191 1188 1181 0
1191 -1188 1181 0
-1097 -1159 1190 0
-1159 -1188 1190 0
-1097 -1188 1190 0
1097 1159 -1190 0
1159 1188 -1190 0
1097 1188 -1190 0
1096 1158 -1193 0
-1096 -1158 -1193 0
-1096 1158 1193 0
1096 -1158 1193 0
1193 1190 -1180 0
-1193 -1190 -1180 0
-1193 1190 1180 0
1193 -1190 1180 0
-1096 -1158 1192 0
-1158 -1190 1192 0
-1096 -1190 1192 0
1096 1158 -1192 0
1158 1190 -1192 0
1096 1190 -1192 0
1095 1157 -1195 0
-1095 -1157 -1195 0
-1095 1157 1195 0
1095 -1157 1195 0
1195 1192 -1179 0
-1195 -1192 -1179 0
-1195 1192 1179 0
1195 -1192 1179 0
-1095 -1157 1194 0
-1157 -1192 1194 0
-1095 -1192 1194 0
1095 1157 -1194 0
1157 1192 -1194 0
1095 1192 -1194 0
1094 1156 -1197 0
-1094 -1156 -1197 0
-1094 1156 1197 0
1094 -1156 1197 0
1197 1194 -1178 0
-1197 -1194 -1178 0
-1197 1194 1178 0
1197 -1194 1178 0
-1094 -1156 1196 0
-1156 -1194 1196 0
-1094 -1194 1196 0
1094 1156 -1196 0
1156 1194 -1196 0
1094 1194 -1196 0
1093 1155 -1199 0
-1093 -1155 -1199 0
-1093 1155 1199 0
1093 -1155 1199 0
1199 1196 -1177 0
-1199 -1196 -1177 0
-1199 1196 1177 0
1199 -1196 1177 0
-1093 -1155 1198 0
-1155 -1196 1198 0
-1093 -1196 1198 0
1093 1155 -1198 0
1155 1196 -1198 0
1093 1196 -1198 0
1092 1154 -1201 0
-1092 -1154 -1201 0
-1092 1154 1201 0
1092 -1154 1201 0
1201 1198 -1176 0
-1201 -1198 -1176 0
-1201 1198 1176 0
1201 -1198 1176 0
-1092 -1154 1200 0
-1154 -1198 1200 0
-1092 -1198 1200 0
1092 1154 -1200 0
1154 1198 -1200 0
1092 1198 -1200 0
1091 1153 -1203 0
-1091 -1153 -1203 0
-1091 1153 1203 0
1091 -1153 1203 0
1203 1200 -1175 0
-1203 -1200 -1175 0
-1203 1200 1175 0
1203 -1200 1175 0
-1091 -1153 1202 0
-1153 -1200 1202 0
-1091 -1200 1202 0
1091 1153 -1202 0
1153 1200 -1202 0
1091 1200 -1202 0
1090 1152 -1205 0
-1090 -1152 -1205 0
-1090 1152 1205 0
1090 -1152 1205 0
1205 1202 -1174 0
-1205 -1202 -1174 0
-1205 1202 1174 0
1205 -1202 1174 0
-1090 -1152 1204 0
-1152 -1202 1204 0
-1090 -1202 1204 0
1090 1152 -1204 0
1152 1202 -1204 0
1090 1202 -1204 0
1089 1151 -1207 0
-1089 -1151 -1207 0
-1089 1151 1207 0
1089 -1151 1207 0
1207 1204 -1173 0
-1207 -1204 -1173 0
-1207 1204 1173 0
1207 -1204 1173 0
-1089 -1151 1206 0
-1151 -1204 1206 0
-1089 -1204 1206 0
1089 1151 -1206 0
1151 1204 -1206 0
1089 1204 -1206 0
1088 1150 -1209 0
-1088 -1150 -1209 0
-1088 1150 1209 0
1088 -1150 1209 0
1209 1206 -1172 0
-1209 -1206 -1172 0
-1209 1206 1172 0
1209 -1206 1172 0
-1088 -1150 1208 0
-1150 -1206 1208 0
-1088 -1206 1208 0
1088 1150 -1208 0
1150 1206 -1208 0
1088 1206 -1208 0
1087 1149 -1211 0
-1087 -1149 -1211 0
-1087 1149 1211 0
1087 -1149 1211 0
1211 1208 -1171 0
-1211 -1208 -1171 0
-1211 1208 1171 0
1211 -1208 1171 0
-1087 -1149 1210 0
-1149 -1208 1210 0
-1087 -1208 1210 0
1087 1149 -1210 0
1149 1208 -1210 0
1087 1208 -1210 0
1086 1148 -1213 0
-1086 -1148 -1213 0
-1086 1148 1213 0
1086 -1148 1213 0
1213 1210 -1170 0
-1213 -1210 -1170 0
-1213 1210 1170 0
1213 -1210 1170 0
-1086 -1148 1212 0
-1148 -1210 1212 0
-1086 -1210 1212 0
1086 1148 -1212 0
1148 1210 -1212 0
1086 1210 -1212 0
1085 1147 -1215 0
-1085 -1147 -1215 0
-1085 1147 1215 0
1085 -1147 1215 0
1215 1212 -1169 0
-1215 -1212 -1169 0
-1215 1212 1169 0
1215 -1212 1169 0
-1085 -1147 1214 0
-1147 -1212 1214 0
-1085 -1212 1214 0
1085 1147 -1214 0
1147 1212 -1214 0
1085 1212 -1214 0
1084 1146 -1217 0
-1084 -1146 -1217 0
-1084 1146 1217 0
1084 -1146 1217 0
1217 1214 -1168 0
-1217 -1214 -1168 0
-1217 1214 1168 0
1217 -1214 1168 0
-1084 -1146 1216 0
-1146 -1214 1216 0
-1084 -1214 1216 0
1084 1146 -1216 0
1146 1214 -1216 0
1084 1214 -1216 0
1083 1145 -1219 0
-1083 -1145 -1219 0
-1083 1145 1219 0
1083 -1145 1219 0
1219 1216 -1167 0
-1219 -1216 -1167 0
-1219 1216 1167 0
1219 -1216 1167 0
-1083 -1145 1218 0
-1145 -1216 1218 0
-1083 -1216 1218 0
1083 1145 -1218 0
1145 1216 -1218 0
1083 1216 -1218 0
1082 1144 -1221 0
-1082 -1144 -1221 0
-1082 1144 1221 0
1082 -1144 1221 0
1221 1218 -1166 0
-1221 -1218 -1166 0
-1221 1218 1166 0
1221 -1218 1166 0
-1082 -1144 1220 0
-1144 -1218 1220 0
-1082 -1218 1220 0
1082 1144 -1220 0
1144 1218 -1220 0
1082 1218 -1220 0
1081 1143 -1223 0
-1081 -1143 -1223 0
-1081 1143 1223 0
1081 -1143 1223 0
1223 1220 -1165 0
-1223 -1220 -1165 0
-1223 1220 1165 0
1223 -1220 1165 0
-1081 -1143 1222 0
-1143 -1220 1222 0
-1081 -1220 1222 0
1081 1143 -1222 0
1143 1220 -1222 0
1081 1220 -1222 0
1080 1142 -1224 0
-1080 -1142 -1224 0
-1080 1142 1224 0
1080 -1142 1224 0
1224 1222 -1164 0
-1224 -1222 -1164 0
-1224 1222 1164 0
1224 -1222 1164 0
-1080 -1142 1163 0
-1142 -1222 1163 0
-1080 -1222 1163 0
1080 1142 -1163 0
1142 1222 -1163 0
1080 1222 -1163 0
27 -1225 0
1 -1225 0
-27 -1 1225 0
27 -1226 0
2 -1226 0
-27 -2 1226 0
27 -1227 0
3 -1227 0
-27 -3 1227 0
27 -1228 0
4 -1228 0
-27 -4 1228 0
27 -1229 0
5 -1229 0
-27 -5 1229 0
27 -1230 0
6 -1230 0
-27 -6 1230 0
27 -1231 0
7 -1231 0
-27 -7 1231 0
27 -1232 0
8 -1232 0
-27 -8 1232 0
27 -1233 0
9 -1233 0
-27 -9 1233 0
27 -1234 0
10 -1234 0
-27 -10 1234 0
27 -1235 0
11 -1235 0
-27 -11 1235 0
27 -1236 0
12 -1236 0
-27 -12 1236 0
27 -1237 0
13 -1237 0
-27 -13 1237 0
27 -1238 0
14 -1238 0
-27 -14 1238 0
27 -1239 0
15 -1239 0
-27 -15 1239 0
27 -1240 0
16 -1240 0
-27 -16 1240 0
27 -1241 0
17 -1241 0
-27 -17 1241 0
27 -1242 0
18 -1242 0
-27 -18 1242 0
27 -1243 0
19 -1243 0
-27 -19 1243 0
27 -1244 0
20 -1244 0
-27 -20 1244 0
27 -1245 0
21 -1245 0
-27 -21 1245 0
1183 1245 -1267 0
-1183 -1245 -1267 0
-1183 1245 1267 0
1183 -1245 1267 0
1183 -1268 0
1245 -1268 0
-1183 -1245 1268 0
1182 1244 -1270 0
-1182 -1244 -1270 0
-1182 1244 1270 0
1182 -1244 1270 0
1270 1268 -1266 0
-1270 -1268 -1266 0
-1270 1268 1266 0
1270 -1268 1266 0
-1182 -1244 1269 0
-1244 -1268 1269 0
-1182 -1268 1269 0
1182 1244 -1269 0
1244 1268 -1269 0
1182 1268 -1269 0
1181 1243 -1272 0
-1181 -1243 -1272 0
-1181 1243 1272 0
1181 -1243 1272 0
1272 1269 -1265 0
-1272 -1269 -1265 0
-1272 1269 1265 0
1272 -1269 1265 0
-1181 -1243 1271 0
-1243 -1269 1271 0
-1181 -1269 1271 0
1181 1243 -1271 0
1243 1269 -1271 0
1181 1269 -1271 0
1180 1242 -1274 0
-1180 -1242 -1274 0
-1180 1242 1274 0
1180 -1242 1274 0
1274 1271 -1264 0
-1274 -1271 -1264 0
-1274 1271 1264 0
1274 -1271 1264 0
-1180 -1242 1273 0
-1242 -1271 1273 0
-1180 -1271 1273 0
1180 1242 -1273 0
1242 1271 -1273 0
1180 1271 -1273 0
1179 1241 -1276 0
-1179 -1241 -1276 0
-1179 1241 1276 0
1179 -1241 1276 0
1276 1273 -1263 0
-1276 -1273 -1263 0
-1276 1273 1263 0
1276 -1273 1263 0
-1179 -1241 1275 0
-1241 -1273 1275 0
-1179 -1273 1275 0
1179 1241 -1275 0
1241 1273 -1275 0
1179 1273 -1275 0
1178 1240 -1278 0
-1178 -1240 -1278 0
-1178 1240 1278 0
1178 -1240 1278 0
1278 1275 -1262 0
-1278 -1275 -1262 0
-1278 1275 1262 0
1278 -1275 1262 0
-1178 -1240 1277 0
-1240 -1275 1277 0
-1178 -1275 1277 0
1178 1240 -1277 0
1240 1275 -1277 0
1178 1275 -1277 0
1177 1239 -1280 0
-1177 -1239 -1280 0
-1177 1239 1280 0
1177 -1239 1280 0
1280 1277 -1261 0
-1280 -1277 -1261 0
-1280 1277 1261 0
1280 -1277 1261 0
-1177 -1239 1279 0
-1239 -1277 1279 0
-1177 -1277 1279 0
1177 1239 -1279 0
1239 1277 -1279 0
1177 1277 -1279 0
1176 1238 -1282 0
-1176 -1238 -1282 0
-1176 1238 1282 0
1176 -1238 1282 0
1282 1279 -1260 0
-1282 -1279 -1260 0
-1282 1279 1260 0
1282 -1279 1260 0
-1176 -1238 1281 0
-1238 -1279 1281 0
-1176 -1279 1281 0
1176 1238 -1281 0
1238 1279 -1281 0
1176 1279 -1281 0
1175 1237 -1284 0
-1175 -1237 -1284 0
-1175 1237 1284 0
1175 -1237 1284 0
1284 1281 -1259 0
-1284 -1281 -1259 0
-1284 1281 1259 0
1284 -1281 1259 0
-1175 -1237 1283 0
-1237 -1281 1283 0
-1175 -1281 1283 0
1175 1237 -1283 0
1237 1281 -1283 0
1175 1281 -1283 0
1174 1236 -1286 0
-1174 -1236 -1286 0
-1174 1236 1286 0
1174 -1236 1286 0
1286 1283 -1258 0
-1286 -1283 -1258 0
-1286 1283 1258 0
1286 -1283 1258 0
-1174 -1236 1285 0
-1236 -1283 1285 0
-1174 -1283 1285 0
1174 1236 -1285 0
1236 1283 -1285 0
1174 1283 -1285 0
1173 1235 -1288 0
-1173 -1235 -1288 0
-1173 1235 1288 0
1173 -1235 1288 0
1288 1285 -1257 0
-1288 -1285 -1257 0
-1288 1285 1257 0
1288 -1285 1257 0
-1173 -1235 1287 0
-1235 -1285 1287 0
-1173 -1285 1287 0
1173 1235 -1287 0
1235 1285 -1287 0
1173 1285 -1287 0
1172 1234 -1290 0
-1172 -1234 -1290 0
-1172 1234 1290 0
1172 -1234 1290 0
1290 1287 -1256 0
-1290 -1287 -1256 0
-1290 1287 1256 0
1290 -1287 1256 0
-1172 -1234 1289 0
-1234 -1287 1289 0
-1172 -1287 1289 0
1172 1234 -1289 0
1234 1287 -1289 0
1172 1287 -1289 0
1171 1233 -1292 0
-1171 -1233 -1292 0
-1171 1233 1292 0
1171 -1233 1292 0
1292 1289 -1255 0
-1292 -1289 -1255 0
-1292 1289 1255 0
1292 -1289 1255 0
-1171 -1233 1291 0
-1233 -1289 1291 0
-1171 -1289 1291 0
1171 1233 -1291 0
1233 1289 -1291 0
1171 1289 -1291 0
1170 1232 -1294 0
-1170 -1232 -1294 0
-1170 1232 1294 0
1170 -1232 1294 0
1294 1291 -1254 0
-1294 -1291 -1254 0
-1294 1291 1254 0
1294 -1291 1254 0
-1170 -1232 1293 0
-1232 -1291 1293 0
-1170 -1291 1293 0
1170 1232 -1293 0
1232 1291 -1293 0
1170 1291 -1293 0
1169 1231 -1296 0
-1169 -1231 -1296 0
-1169 1231 1296 0
1169 -1231 1296 0
1296 1293 -1253 0
-1296 -1293 -1253 0
-1296 1293 1253 0
1296 -1293 1253 0
-1169 -1231 1295 0
-1231 -1293 1295 0
-1169 -1293 1295 0
1169 1231 -1295 0
1231 1293 -1295 0
1169 1293 -1295 0
1168 1230 -1298 0
-1168 -1230 -1298 0
-1168 1230 1298 0
1168 -1230 1298 0
1298 1295 -1252 0
-1298 -1295 -1252 0
-1298 1295 1252 0
1298 -1295 1252 0
-1168 -1230 1297 0
-1230 -1295 1297 0
-1168 -1295 1297 0
1168 1230 -1297 0
1230 1295 -1297 0
1168 1295 -1297 0
1167 1229 -1300 0
-1167 -1229 -1300 0
-1167 1229 1300 0
1167 -1229 1300 0
1300 1297 -1251 0
-1300 -1297 -1251 0
-1300 1297 1251 0
1300 -1297 1251 0
-1167 -1229 1299 0
-1229 -1297 1299 0
-1167 -1297 1299 0
1167 1229 -1299 0
1229 1297 -1299 0
1167 1297 -1299 0
1166 1228 -1302 0
-1166 -1228 -1302 0
-1166 1228 1302 0
1166 -1228 1302 0
1302 1299 -1250 0
-1302 -1299 -1250 0
-1302 1299 1250 0
1302 -1299 1250 0
-1166 -1228 1301 0
-1228 -1299 1301 0
-1166 -1299 1301 0
1166 1228 -1301 0
1228 1299 -1301 0
1166 1299 -1301 0
1165 1227 -1304 0
-1165 -1227 -1304 0
-1165 1227 1304 0
1165 -1227 1304 0
1304 1301 -1249 0
-1304 -1301 -1249 0
-1304 1301 1249 0
1304 -1301 1249 0
-1165 -1227 1303 0
-1227 -1301 1303 0
-1165 -1301 1303 0
1165 1227 -1303 0
1227 1301 -1303 0
1165 1301 -1303 0
1164 1226 -1306 0
-1164 -1226 -1306 0
-1164 1226 1306 0
1164 -1226 1306 0
1306 1303 -1248 0
-1306 -1303 -1248 0
-1306 1303 1248 0
1306 -1303 1248 0
-1164 -1226 1305 0
-1226 -1303 1305 0
-1164 -1303 1305 0
1164 1226 -1305 0
1226 1303 -1305 0
1164 1303 -1305 0
1163 1225 -1307 0
-1163 -1225 -1307 0
-1163 1225 1307 0
1163 -1225 1307 0
1307 1305 -1247 0
-1307 -1305 -1247 0
-1307 1305 1247 0
1307 -1305 1247 0
-1163 -1225 1246 0
-1225 -1305 1246 0
-1163 -1305 1246 0
1163 1225 -1246 0
1225 1305 -1246 0
1163 1305 -1246 0
26 -1308 0
1 -1308 0
-26 -1 1308 0
26 -1309 0
2 -1309 0
-26 -2 1309 0
26 -1310 0
3 -1310 0
-26 -3 1310 0
26 -1311 0
4 -1311 0
-26 -4 1311 0
26 -1312 0
5 -1312 0
-26 -5 1312 0
26 -1313 0
6 -1313 0
-26 -6 1313 0
26 -1314 0
7 -1314 0
-26 -7 1314 0
26 -1315 0
8 -1315 0
-26 -8 1315 0
26 -1316 0
9 -1316 0
-26 -9 1316 0
26 -1317 0
10 -1317 0
-26 -10 1317 0
26 -1318 0
11 -1318 0
-26 -11 1318 0
26 -1319 0
12 -1319 0
-26 -12 1319 0
26 -1320 0
13 -1320 0
-26 -13 1320 0
26 -1321 0
14 -1321 0
-26 -14 1321 0
26 -1322 0
15 -1322 0
-26 -15 1322 0
26 -1323 0
16 -1323 0
-26 -16 1323 0
26 -1324 0
17 -1324 0
-26 -17 1324 0
26 -1325 0
18 -1325 0
-26 -18 1325 0
26 -1326 0
19 -1326 0
-26 -19 1326 0
26 -1327 0
20 -1327 0
-26 -20 1327 0
26 -1328 0
21 -1328 0
-26 -21 1328 0
1266 1328 -1350 0
-1266 -1328 -1350 0
-1266 1328 1350 0
1266 -1328 1350 0
1266 -1351 0
1328 -1351 0
-1266 -1328 1351 0
1265 1327 -1353 0
-1265 -1327 -1353 0
-1265 1327 1353 0
1265 -1327 1353 0
1353 1351 -1349 0
-1353 -1351 -1349 0
-1353 1351 1349 0
1353 -1351 1349 0
-1265 -1327 1352 0
-1327 -1351 1352 0
-1265 -1351 1352 0
1265 1327 -1352 0
1327 1351 -1352 0
1265 1351 -1352 0
1264 1326 -1355 0
-1264 -1326 -1355 0
-1264 1326 1355 0
1264 -1326 1355 0
1355 1352 -1348 0
-1355 -1352 -1348 0
-1355 1352 1348 0
1355 -1352 1348 0
-1264 -1326 1354 0
-1326 -1352 1354 0
-1264 -1352 1354 0
1264 1326 -1354 0
1326 1352 -1354 0
1264 1352 -1354 0
1263 1325 -1357 0
-1263 -1325 -1357 0
-1263 1325 1357 0
1263 -1325 1357 0
1357 1354 -1347 0
-1357 -1354 -1347 0
-1357 1354 1347 0
1357 -1354 1347 0
-1263 -1325 1356 0
-1325 -1354 1356 0
-1263 -1354 1356 0
1263 1325 -1356 0
1325 1354 -1356 0
1263 1354 -1356 0
1262 1324 -1359 0
-1262 -1324 -1359 0
-1262 1324 1359 0
1262 -1324 1359 0
1359 1356 -1346 0
-1359 -1356 -1346 0
-1359 1356 1346 0
1359 -1356 1346 0
-1262 -1324 1358 0
-1324 -1356 1358 0
-1262 -1356 1358 0
1262 1324 -1358 0
1324 1356 -1358 0
1262 1356 -1358 0
1261 1323 -1361 0
-1261 -1323 -1361 0
-1261 1323 1361 0
1261 -1323 1361 0
1361 1358 -1345 0
-1361 -1358 -1345 0
-1361 1358 1345 0
1361 -1358 1345 0
-1261 -1323 1360 0
-1323 -1358 1360 0
-1261 -1358 1360 0
1261 1323 -1360 0
1323 1358 -1360 0
1261 1358 -1360 0
1260 1322 -1363 0
-1260 -1322 -1363 0
-1260 1322 1363 0
1260 -1322 1363 0
1363 1360 -1344 0
-1363 -1360 -1344 0
-1363 1360 1344 0
1363 -1360 1344 0
-1260 -1322 1362 0
-1322 -1360 1362 0
-1260 -1360 1362 0
1260 1322 -1362 0
1322 1360 -1362 0
1260 1360 -1362 0
1259 1321 -1365 0
-1259 -1321 -1365 0
-1259 1321 1365 0
1259 -1321 1365 0
1365 1362 -1343 0
-1365 -1362 -1343 0
-1365 1362 1343 0
1365 -1362 1343 0
-1259 -1321 1364 0
-1321 -1362 1364 0
-1259 -1362 1364 0
1259 1321 -1364 0
1321 1362 -1364 0
1259 1362 -1364 0
1258 1320 -1367 0
-1258 -1320 -1367 0
-1258 1320 1367 0
1258 -1320 1367 0
1367 1364 -1342 0
-1367 -1364 -1342 0
-1367 1364 1342 0
1367 -1364 1342 0
-1258 -1320 1366 0
-1320 -1364 1366 0
-1258 -1364 1366 0
1258 1320 -1366 0
1320 1364 -1366 0
1258 1364 -1366 0
1257 1319 -1369 0
-1257 -1319 -1369 0
-1257 1319 1369 0
1257 -1319 1369 0
1369 1366 -1341 0
-1369 -1366 -1341 0
-1369 1366 1341 0
1369 -1366 1341 0
-1257 -1319 1368 0
-1319 -1366 1368 0
-1257 -1366 1368 0
1257 1319 -1368 0
1319 1366 -1368 0
1257 1366 -1368 0
1256 1318 -1371 0
-1256 -1318 -1371 0
-1256 1318 1371 0
1256 -1318 1371 0
1371 1368 -1340 0
-1371 -1368 -1340 0
-1371 1368 1340 0
1371 -1368 1340 0
-1256 -1318 1370 0
-1318 -1368 1370 0
-1256 -1368 1370 0
1256 1318 -1370 0
1318 1368 -1370 0
1256 1368 -1370 0
1255 1317 -1373 0
-1255 -1317 -1373 0
-1255 1317 1373 0
1255 -1317 1373 0
1373 1370 -1339 0
-1373 -1370 -1339 0
-1373 1370 1339 0
1373 -1370 1339 0
-1255 -1317 1372 0
-1317 -1370 1372 0
-1255 -1370 1372 0
1255 1317 -1372 0
1317 1370 -1372 0
1255 1370 -1372 0
1254 1316 -1375 0
-1254 -1316 -1375 0
-1254 1316 1375 0
1254 -1316 1375 0
1375 1372 -1338 0
-1375 -1372 -1338 0
-1375 1372 1338 0
1375 -1372 1338 0
-1254 -1316 1374 0
-1316 -1372 1374 0
-1254 -1372 1374 0
1254 1316 -1374 0
1316 1372 -1374 0
1254 1372 -1374 0
1253 1315 -1377 0
-1253 -1315 -1377 0
-1253 1315 1377 0
1253 -1315 1377 0
1377 1374 -1337 0
-1377 -1374 -1337 0
-1377 1374 1337 0
1377 -1374 1337 0
-1253 -1315 1376 0
-1315 -1374 1376 0
-1253 -1374 1376 0
1253 1315 -1376 0
1315 1374 -1376 0
1253 1374 -1376 0
1252 1314 -1379 0
-1252 -1314 -1379 0
-1252 1314 1379 0
1252 -1314 1379 0
1379 1376 -1336 0
-1379 -1376 -1336 0
-1379 1376 1336 0
1379 -1376 1336 0
-1252 -1314 1378 0
-1314 -1376 1378 0
-1252 -1376 1378 0
1252 1314 -1378 0
1314 1376 -1378 0
1252 1376 -1378 0
1251 1313 -1381 0
-1251 -1313 -1381 0
-1251 1313 1381 0
1251 -1313 1381 0
1381 1378 -1335 0
-1381 -1378 -1335 0
-1381 1378 1335 0
1381 -1378 1335 0
-1251 -1313 1380 0
-1313 -1378 1380 0
-1251 -1378 1380 0
1251 1313 -1380 0
1313 1378 -1380 0
1251 1378 -1380 0
1250 1312 -1383 0
-1250 -1312 -1383 0
-1250 1312 1383 0
1250 -1312 1383 0
1383 1380 -1334 0
-1383 -1380 -1334 0
-1383 1380 1334 0
1383 -1380 1334 0
-1250 -1312 1382 0
-1312 -1380 1382 0
-1250 -1380 1382 0
1250 1312 -1382 0
1312 1380 -1382 0
1250 1380 -1382 0
1249 1311 -1385 0
-1249 -1311 -1385 0
-1249 1311 1385 0
1249 -1311 1385 0
1385 1382 -1333 0
-1385 -1382 -1333 0
-1385 1382 1333 0
1385 -1382 1333 0
-1249 -1311 1384 0
-1311 -1382 1384 0
-1249 -1382 1384 0
1249 1311 -1384 0
1311 1382 -1384 0
1249 1382 -1384 0
1248 1310 -1387 0
-1248 -1310 -1387 0
-1248 1310 1387 0
1248 -1310 1387 0
1387 1384 -1332 0
-1387 -1384 -1332 0
-1387 1384 1332 0
1387 -1384 1332 0
-1248 -1310 1386 0
-1310 -1384 1386 0
-1248 -1384 1386 0
1248 1310 -1386 0
1310 1384 -1386 0
1248 1384 -1386 0
1247 1309 -1389 0
-1247 -1309 -1389 0
-1247 1309 1389 0
1247 -1309 1389 0
1389 1386 -1331 0
-1389 -1386 -1331 0
-1389 1386 1331 0
1389 -1386 1331 0
-1247 -1309 1388 0
-1309 -1386 1388 0
-1247 -1386 1388 0
1247 1309 -1388 0
1309 1386 -1388 0
1247 1386 -1388 0
1246 1308 -1390 0
-1246 -1308 -1390 0
-1246 1308 1390 0
1246 -1308 1390 0
1390 1388 -1330 0
-1390 -1388 -1330 0
-1390 1388 1330 0
1390 -1388 1330 0
-1246 -1308 1329 0
-1308 -1388 1329 0
-1246 -1388 1329 0
1246 1308 -1329 0
1308 1388 -1329 0
1246 1388 -1329 0
25 -1391 0
1 -1391 0
-25 -1 1391 0
25 -1392 0
2 -1392 0
-25 -2 1392 0
25 -1393 0
3 -1393 0
-25 -3 1393 0
25 -1394 0
4 -1394 0
-25 -4 1394 0
25 -1395 0
5 -1395 0
-25 -5 1395 0
25 -1396 0
6 -1396 0
-25 -6 1396 0
25 -1397 0
7 -1397 0
-25 -7 1397 0
25 -1398 0
8 -1398 0
-25 -8 1398 0
25 -1399 0
9 -1399 0
-25 -9 1399 0
25 -1400 0
10 -1400 0
-25 -10 1400 0
25 -1401 0
11 -1401 0
-25 -11 1401 0
25 -1402 0
12 -1402 0
-25 -12 1402 0
25 -1403 0
13 -1403 0
-25 -13 1403 0
25 -1404 0
14 -1404 0
-25 -14 1404 0
25 -1405 0
15 -1405 0
-25 -15 1405 0
25 -1406 0
16 -1406 0
-25 -16 1406 0
25 -1407 0
17 -1407 0
-25 -17 1407 0
25 -1408 0
18 -1408 0
-25 -18 1408 0
25 -1409 0
19 -1409 0
-25 -19 1409 0
25 -1410 0
20 -1410 0
-25 -20 1410 0
25 -1411 0
21 -1411 0
-25 -21 1411 0
1349 1411 -1433 0
-1349 -1411 -1433 0
-1349 1411 1433 0
1349 -1411 1433 0
1349 -1434 0
1411 -1434 0
-1349 -1411 1434 0
1348 1410 -1436 0
-1348 -1410 -1436 0
-1348 1410 1436 0
1348 -1410 1436 0
1436 1434 -1432 0
-1436 -1434 -1432 0
-1436 1434 1432 0
1436 -1434 1432 0
-1348 -1410 1435 0
-1410 -1434 1435 0
-1348 -1434 1435 0
1348 1410 -1435 0
1410 1434 -1435 0
1348 1434 -1435 0
1347 1409 -1438 0
-1347 -1409 -1438 0
-1347 1409 1438 0
1347 -1409 1438 0
1438 1435 -1431 0
-1438 -1435 -1431 0
-1438 1435 1431 0
1438 -1435 1431 0
-1347 -1409 1437 0
-1409 -1435 1437 0
-1347 -1435 1437 0
1347 1409 -1437 0
1409 1435 -1437 0
1347 1435 -1437 0
1346 1408 -1440 0
-1346 -1408 -1440 0
-1346 1408 1440 0
1346 -1408 1440 0
1440 1437 -1430 0
-1440 -1437 -1430 0
-1440 1437 1430 0
1440 -1437 1430 0
-1346 -1408 1439 0
-1408 -1437 1439 0
-1346 -1437 1439 0
1346 1408 -1439 0
1408 1437 -1439 0
1346 1437 -1439 0
1345 1407 -1442 0
-1345 -1407 -1442 0
-1345 1407 1442 0
1345 -1407 1442 0
1442 1439 -1429 0
-1442 -1439 -1429 0
-1442 1439 1429 0
1442 -1439 1429 0
-1345 -1407 1441 0
-1407 -1439 1441 0
-1345 -1439 1441 0
1345 1407 -1441 0
1407 1439 -1441 0
1345 1439 -1441 0
1344 1406 -1444 0
-1344 -1406 -1444 0
-1344 1406 1444 0
1344 -1406 1444 0
1444 1441 -1428 0
-1444 -1441 -1428 0
-1444 1441 1428 0
1444 -1441 1428 0
-1344 -1406 1443 0
-1406 -1441 1443 0
-1344 -1441 1443 0
1344 1406 -1443 0
1406 1441 -1443 0
1344 1441 -1443 0
1343 1405 -1446 0
-1343 -1405 -1446 0
-1343 1405 1446 0
1343 -1405 1446 0
1446 1443 -1427 0
-1446 -1443 -1427 0
-1446 1443 1427 0
1446 -1443 1427 0
-1343 -1405 1445 0
-1405 -1443 1445 0
-1343 -1443 1445 0
1343 1405 -1445 0
1405 1443 -1445 0
1343 1443 -1445 0
1342 1404 -1448 0
-1342 -1404 -1448 0
-1342 1404 1448 0
1342 -1404 1448 0
1448 1445 -1426 0
-1448 -1445 -1426 0
-1448 1445 1426 0
1448 -1445 1426 0
-1342 -1404 1447 0
-1404 -1445 1447 0
-1342 -1445 1447 0
1342 1404 -1447 0
1404 1445 -1447 0
1342 1445 -1447 0
1341 1403 -1450 0
-1341 -1403 -1450 0
-1341 1403 1450 0
1341 -1403 1450 0
1450 1447 -1425 0
-1450 -1447 -1425 0
-1450 1447 1425 0
1450 -1447 1425 0
-1341 -1403 1449 0
-1403 -1447 1449 0
-1341 -1447 1449 0
1341 1403 -1449 0
1403 1447 -1449 0
1341 1447 -1449 0
1340 1402 -1452 0
-1340 -1402 -1452 0
-1340 1402 1452 0
1340 -1402 1452 0
1452 1449 -1424 0
-1452 -1449 -1424 0
-1452 1449 1424 0
1452 -1449 1424 0
-1340 -1402 1451 0
-1402 -1449 1451 0
-1340 -1449 1451 0
1340 1402 -1451 0
1402 1449 -1451 0
1340 1449 -1451 0
1339 1401 -1454 0
-1339 -1401 -1454 0
-1339 1401 1454 0
1339 -1401 1454 0
1454 1451 -1423 0
-1454 -1451 -1423 0
-1454 1451 1423 0
1454 -1451 1423 0
-1339 -1401 1453 0
-1401 -1451 1453 0
-1339 -1451 1453 0
1339 1401 -1453 0
1401 1451 -1453 0
1339 1451 -1453 0
1338 1400 -1456 0
-1338 -1400 -1456 0
-1338 1400 1456 0
1338 -1400 1456 0
1456 1453 -1422 0
-1456 -1453 -1422 0
-1456 1453 1422 0
1456 -1453 1422 0
-1338 -1400 1455 0
-1400 -1453 1455 0
-1338 -1453 1455 0
1338 1400 -1455 0
1400 1453 -1455 0
1338 1453 -1455 0
1337 1399 -1458 0
-1337 -1399 -1458 0
-1337 1399 1458 0
1337 -1399 1458 0
1458 1455 -1421 0
-1458 -1455 -1421 0
-1458 1455 1421 0
1458 -1455 1421 0
-1337 -1399 1457 0
-1399 -1455 1457 0
-1337 -1455 1457 0
1337 1399 -1457 0
1399 1455 -1457 0
1337 1455 -1457 0
1336 1398 -1460 0
-1336 -1398 -1460 0
-1336 1398 1460 0
1336 -1398 1460 0
1460 1457 -1420 0
-1460 -1457 -1420 0
-1460 1457 1420 0
1460 -1457 1420 0
-1336 -1398 1459 0
-1398 -1457 1459 0
-1336 -1457 1459 0
1336 1398 -1459 0
1398 1457 -1459 0
1336 1457 -1459 0
1335 1397 -1462 0
-1335 -1397 -1462 0
-1335 1397 1462 0
1335 -1397 1462 0
1462 1459 -1419 0
-1462 -1459 -1419 0
-1462 1459 1419 0
1462 -1459 1419 0
-1335 -1397 1461 0
-1397 -1459 1461 0
-1335 -1459 1461 0
1335 1397 -1461 0
1397 1459 -1461 0
1335 1459 -1461 0
1334 1396 -1464 0
-1334 -1396 -1464 0
-1334 1396 1464 0
1334 -1396 1464 0
1464 1461 -1418 0
-1464 -1461 -1418 0
-1464 1461 1418 0
1464 -1461 1418 0
-1334 -1396 1463 0
-1396 -1461 1463 0
-1334 -1461 1463 0
1334 1396 -1463 0
1396 1461 -1463 0
1334 1461 -1463 0
1333 1395 -1466 0
-1333 -1395 -1466 0
-1333 1395 1466 0
1333 -1395 1466 0
1466 1463 -1417 0
-1466 -1463 -1417 0
-1466 1463 1417 0
1466 -1463 1417 0
-1333 -1395 1465 0
-1395 -1463 1465 0
-1333 -1463 1465 0
1333 1395 -1465 0
1395 1463 -1465 0
1333 1463 -1465 0
1332 1394 -1468 0
-1332 -1394 -1468 0
-1332 1394 1468 0
1332 -1394 1468 0
1468 1465 -1416 0
-1468 -1465 -1416 0
-1468 1465 1416 0
1468 -1465 1416 0
-1332 -1394 1467 0
-1394 -1465 1467 0
-1332 -1465 1467 0
1332 1394 -1467 0
1394 1465 -1467 0
1332 1465 -1467 0
1331 1393 -1470 0
-1331 -1393 -1470 0
-1331 1393 1470 0
1331 -1393 1470 0
1470 1467 -1415 0
-1470 -1467 -1415 0
-1470 1467 1415 0
1470 -1467 1415 0
-1331 -1393 1469 0
-1393 -1467 1469 0
-1331 -1467 1469 0
1331 1393 -1469 0
1393 1467 -1469 0
1331 1467 -1469 0
1330 1392 -1472 0
-1330 -1392 -1472 0
-1330 1392 1472 0
1330 -1392 1472 0
1472 1469 -1414 0
-1472 -1469 -1414 0
-1472 1469 1414 0
1472 -1469 1414 0
-1330 -1392 1471 0
-1392 -1469 1471 0
-1330 -1469 1471 0
1330 1392 -1471 0
1392 1469 -1471 0
1330 1469 -1471 0
1329 1391 -1473 0
-1329 -1391 -1473 0
-1329 1391 1473 0
1329 -1391 1473 0
1473 1471 -1413 0
-1473 -1471 -1413 0
-1473 1471 1413 0
1473 -1471 1413 0
-1329 -1391 1412 0
-1391 -1471 1412 0
-1329 -1471 1412 0
1329 1391 -1412 0
1391 1471 -1412 0
1329 1471 -1412 0
24 -1474 0
1 -1474 0
-24 -1 1474 0
24 -1475 0
2 -1475 0
-24 -2 1475 0
24 -1476 0
3 -1476 0
-24 -3 1476 0
24 -1477 0
4 -1477 0
-24 -4 1477 0
24 -1478 0
5 -1478 0
-24 -5 1478 0
24 -1479 0
6 -1479 0
-24 -6 1479 0
24 -1480 0
7 -1480 0
-24 -7 1480 0
24 -1481 0
8 -1481 0
-24 -8 1481 0
24 -1482 0
9 -1482 0
-24 -9 1482 0
24 -1483 0
10 -1483 0
-24 -10 1483 0
24 -1484 0
11 -1484 0
-24 -11 1484 0
24 -1485 0
12 -1485 0
-24 -12 1485 0
24 -1486 0
13 -1486 0
-24 -13 1486 0
24 -1487 0
14 -1487 0
-24 -14 1487 0
24 -1488 0
15 -1488 0
-24 -15 1488 0
24 -1489 0
16 -1489 0
-24 -16 1489 0
24 -1490 0
17 -1490 0
-24 -17 1490 0
24 -1491 0
18 -1491 0
-24 -18 1491 0
24 -1492 0
19 -1492 0
-24 -19 1492 0
24 -1493 0
20 -1493 0
-24 -20 1493 0
24 -1494 0
21 -1494 0
-24 -21 1494 0
1432 1494 -1516 0
-1432 -1494 -1516 0
-1432 1494 1516 0
1432 -1494 1516 0
1432 -1517 0
1494 -1517 0
-1432 -1494 1517 0
1431 1493 -1519 0
-1431 -1493 -1519 0
-1431 1493 1519 0
1431 -1493 1519 0
1519 1517 -1515 0
-1519 -1517 -1515 0
-1519 1517 1515 0
1519 -1517 1515 0
-1431 -1493 1518 0
-1493 -1517 1518 0
-1431 -1517 1518 0
1431 1493 -1518 0
1493 1517 -1518 0
1431 1517 -1518 0
1430 1492 -1521 0
-1430 -1492 -1521 0
-1430 1492 1521 0
1430 -1492 1521 0
1521 1518 -1514 0
-1521 -1518 -1514 0
-1521 1518 1514 0
1521 -1518 1514 0
-1430 -1492 1520 0
-1492 -1518 1520 0
-1430 -1518 1520 0
1430 1492 -1520 0
1492 1518 -1520 0
1430 1518 -1520 0
1429 1491 -1523 0
-1429 -1491 -1523 0
-1429 1491 1523 0
1429 -1491 1523 0
1523 1520 -1513 0
-1523 -1520 -1513 0
-1523 1520 1513 0
1523 -1520 1513 0
-1429 -1491 1522 0
-1491 -1520 1522 0
-1429 -1520 1522 0
1429 1491 -1522 0
1491 1520 -1522 0
1429 1520 -1522 0
1428 1490 -1525 0
-1428 -1490 -1525 0
-1428 1490 1525 0
1428 -1490 1525 0
1525 1522 -1512 0
-1525 -1522 -1512 0
-1525 1522 1512 0
1525 -1522 1512 0
-1428 -1490 1524 0
-1490 -1522 1524 0
-1428 -1522 1524 0
1428 1490 -1524 0
1490 1522 -1524 0
1428 1522 -1524 0
1427 1489 -1527 0
-1427 -1489 -1527 0
-1427 1489 1527 0
1427 -1489 1527 0
1527 1524 -1511 0
-1527 -1524 -1511 0
-1527 1524 1511 0
1527 -1524 1511 0
-1427 -1489 1526 0
-1489 -1524 1526 0
-1427 -1524 1526 0
1427 1489 -1526 0
1489 1524 -1526 0
1427 1524 -1526 0
1426 1488 -1529 0
-1426 -1488 -1529 0
-1426 1488 1529 0
1426 -1488 1529 0
1529 1526 -1510 0
-1529 -1526 -1510 0
-1529 1526 1510 0
1529 -1526 1510 0
-1426 -1488 1528 0
-1488 -1526 1528 0
-1426 -1526 1528 0
1426 1488 -1528 0
1488 1526 -1528 0
1426 1526 -1528 0
1425 1487 -1531 0
-1425 -1487 -1531 0
-1425 1487 1531 0
1425 -1487 1531 0
1531 1528 -1509 0
-1531 -1528 -1509 0
-1531 1528 1509 0
1531 -1528 1509 0
-1425 -1487 1530 0
-1487 -1528 1530 0
-1425 -1528 1530 0
1425 1487 -1530 0
1487 1528 -1530 0
1425 1528 -1530 0
1424 1486 -1533 0
-1424 -1486 -1533 0
-1424 1486 1533 0
1424 -1486 1533 0
1533 1530 -1508 0
-1533 -1530 -1508 0
-1533 1530 1508 0
1533 -1530 1508 0
-1424 -1486 1532 0
-1486 -1530 1532 0
-1424 -1530 1532 0
1424 1486 -1532 0
1486 1530 -1532 0
1424 1530 -1532 0
1423 1485 -1535 0
-1423 -1485 -1535 0
-1423 1485 1535 0
1423 -1485 1535 0
1535 1532 -1507 0
-1535 -1532 -1507 0
-1535 1532 1507 0
1535 -1532 1507 0
-1423 -1485 1534 0
-1485 -1532 1534 0
-1423 -1532 1534 0
1423 1485 -1534 0
1485 1532 -1534 0
1423 1532 -1534 0
1422 1484 -1537 0
-1422 -1484 -1537 0
-1422 1484 1537 0
1422 -1484 1537 0
1537 1534 -1506 0
-1537 -1534 -1506 0
-1537 1534 1506 0
1537 -1534 1506 0
-1422 -1484 1536 0
-1484 -1534 1536 0
-1422 -1534 1536 0
1422 1484 -1536 0
1484 1534 -1536 0
1422 1534 -1536 0
1421 1483 -1539 0
-1421 -1483 -1539 0
-1421 1483 1539 0
1421 -1483 1539 0
1539 1536 -1505 0
-1539 -1536 -1505 0
-1539 1536 1505 0
1539 -1536 1505 0
-1421 -1483 1538 0
-1483 -1536 1538 0
-1421 -1536 1538 0
1421 1483 -1538 0
1483 1536 -1538 0
1421 1536 -1538 0
1420 1482 -1541 0
-1420 -1482 -1541 0
-1420 1482 1541 0
1420 -1482 1541 0
1541 1538 -1504 0
-1541 -1538 -1504 0
-1541 1538 1504 0
1541 -1538 1504 0
-1420 -1482 1540 0
-1482 -1538 1540 0
-1420 -1538 1540 0
1420 1482 -1540 0
1482 1538 -1540 0
1420 1538 -1540 0
1419 1481 -1543 0
-1419 -1481 -1543 0
-1419 1481 1543 0
1419 -1481 1543 0
1543 1540 -1503 0
-1543 -1540 -1503 0
-1543 1540 1503 0
1543 -1540 1503 0
-1419 -1481 1542 0
-1481 -1540 1542 0
-1419 -1540 1542 0
1419 1481 -1542 0
1481 1540 -1542 0
1419 1540 -1542 0
1418 1480 -1545 0
-1418 -1480 -1545 0
-1418 1480 1545 0
1418 -1480 1545 0
1545 1542 -1502 0
-1545 -1542 -1502 0
-1545 1542 1502 0
1545 -1542 1502 0
-1418 -1480 1544 0
-1480 -1542 1544 0
-1418 -1542 1544 0
1418 1480 -1544 0
1480 1542 -1544 0
1418 1542 -1544 0
1417 1479 -1547 0
-1417 -1479 -1547 0
-1417 1479 1547 0
1417 -1479 1547 0
1547 1544 -1501 0
-1547 -1544 -1501 0
-1547 1544 1501 0
1547 -1544 1501 0
-1417 -1479 1546 0
-1479 -1544 1546 0
-1417 -1544 1546 0
1417 1479 -1546 0
1479 1544 -1546 0
1417 1544 -1546 0
1416 1478 -1549 0
-1416 -1478 -1549 0
-1416 1478 1549 0
1416 -1478 1549 0
1549 1546 -1500 0
-1549 -1546 -1500 0
-1549 1546 1500 0
1549 -1546 1500 0
-1416 -1478 1548 0
-1478 -1546 1548 0
-1416 -1546 1548 0
1416 1478 -1548 0
1478 1546 -1548 0
1416 1546 -1548 0
1415 1477 -1551 0
-1415 -1477 -1551 0
-1415 1477 1551 0
1415 -1477 1551 0
1551 1548 -1499 0
-1551 -1548 -1499 0
-1551 1548 1499 0
1551 -1548 1499 0
-1415 -1477 1550 0
-1477 -1548 1550 0
-1415 -1548 1550 0
1415 1477 -1550 0
1477 1548 -1550 0
1415 1548 -1550 0
1414 1476 -1553 0
-1414 -1476 -1553 0
-1414 1476 1553 0
1414 -1476 1553 0
1553 1550 -1498 0
-1553 -1550 -1498 0
-1553 1550 1498 0
1553 -1550 1498 0
-1414 -1476 1552 0
-1476 -1550 1552 0
-1414 -1550 1552 0
1414 1476 -1552 0
1476 1550 -1552 0
1414 1550 -1552 0
1413 1475 -1555 0
-1413 -1475 -1555 0
-1413 1475 1555 0
1413 -1475 1555 0
1555 1552 -1497 0
-1555 -1552 -1497 0
-1555 1552 1497 0
1555 -1552 1497 0
-1413 -1475 1554 0
-1475 -1552 1554 0
-1413 -1552 1554 0
1413 1475 -1554 0
1475 1552 -1554 0
1413 1552 -1554 0
1412 1474 -1556 0
-1412 -1474 -1556 0
-1412 1474 1556 0
1412 -1474 1556 0
1556 1554 -1496 0
-1556 -1554 -1496 0
-1556 1554 1496 0
1556 -1554 1496 0
-1412 -1474 1495 0
-1474 -1554 1495 0
-1412 -1554 1495 0
1412 1474 -1495 0
1474 1554 -1495 0
1412 1554 -1495 0
23 -1557 0
1 -1557 0
-23 -1 1557 0
23 -1558 0
2 -1558 0
-23 -2 1558 0
23 -1559 0
3 -1559 0
-23 -3 1559 0
23 -1560 0
4 -1560 0
-23 -4 1560 0
23 -1561 0
5 -1561 0
-23 -5 1561 0
23 -1562 0
6 -1562 0
-23 -6 1562 0
23 -1563 0
7 -1563 0
-23 -7 1563 0
23 -1564 0
8 -1564 0
-23 -8 1564 0
23 -1565 0
9 -1565 0
-23 -9 1565 0
23 -1566 0
10 -1566 0
-23 -10 1566 0
23 -1567 0
11 -1567 0
-23 -11 1567 0
23 -1568 0
12 -1568 0
-23 -12 1568 0
23 -1569 0
13 -1569 0
-23 -13 1569 0
23 -1570 0
14 -1570 0
-23 -14 1570 0
23 -1571 0
15 -1571 0
-23 -15 1571 0
23 -1572 0
16 -1572 0
-23 -16 1572 0
23 -1573 0
17 -1573 0
-23 -17 1573 0
23 -1574 0
18 -1574 0
-23 -18 1574 0
23 -1575 0
19 -1575 0
-23 -19 1575 0
23 -1576 0
20 -1576 0
-23 -20 1576 0
23 -1577 0
21 -1577 0
-23 -21 1577 0
1515 1577 -1599 0
-1515 -1577 -1599 0
-1515 1577 1599 0
1515 -1577 1599 0
1515 -1600 0
1577 -1600 0
-1515 -1577 1600 0
1514 1576 -1602 0
-1514 -1576 -1602 0
-1514 1576 1602 0
1514 -1576 1602 0
1602 1600 -1598 0
-1602 -1600 -1598 0
-1602 1600 1598 0
1602 -1600 1598 0
-1514 -1576 1601 0
-1576 -1600 1601 0
-1514 -1600 1601 0
1514 1576 -1601 0
1576 1600 -1601 0
1514 1600 -1601 0
1513 1575 -1604 0
-1513 -1575 -1604 0
-1513 1575 1604 0
1513 -1575 1604 0
1604 1601 -1597 0
-1604 -1601 -1597 0
-1604 1601 1597 0
1604 -1601 1597 0
-1513 -1575 1603 0
-1575 -1601 1603 0
-1513 -1601 1603 0
1513 1575 -1603 0
1575 1601 -1603 0
1513 1601 -1603 0
1512 1574 -1606 0
-1512 -1574 -1606 0
-1512 1574 1606 0
1512 -1574 1606 0
1606 1603 -1596 0
-1606 -1603 -1596 0
-1606 1603 1596 0
1606 -1603 1596 0
-1512 -1574 1605 0
-1574 -1603 1605 0
-1512 -1603 1605 0
1512 1574 -1605 0
1574 1603 -1605 0
1512 1603 -1605 0
1511 1573 -1608 0
-1511 -1573 -1608 0
-1511 1573 1608 0
1511 -1573 1608 0
1608 1605 -1595 0
-1608 -1605 -1595 0
-1608 1605 1595 0
1608 -1605 1595 0
-1511 -1573 1607 0
-1573 -1605 1607 0
-1511 -1605 1607 0
1511 1573 -1607 0
1573 1605 -1607 0
1511 1605 -1607 0
1510 1572 -1610 0
-1510 -1572 -1610 0
-1510 1572 1610 0
1510 -1572 1610 0
1610 1607 -1594 0
-1610 -1607 -1594 0
-1610 1607 1594 0
1610 -1607 1594 0
-1510 -1572 1609 0
-1572 -1607 1609 0
-1510 -1607 1609 0
1510 1572 -1609 0
1572 1607 -1609 0
1510 1607 -1609 0
1509 1571 -1612 0
-1509 -1571 -1612 0
-1509 1571 1612 0
1509 -1571 1612 0
1612 1609 -1593 0
-1612 -1609 -1593 0
-1612 1609 1593 0
1612 -1609 1593 0
-1509 -1571 1611 0
-1571 -1609 1611 0
-1509 -1609 1611 0
1509 1571 -1611 0
1571 1609 -1611 0
1509 1609 -1611 0
1508 1570 -1614 0
-1508 -1570 -1614 0
-1508 1570 1614 0
1508 -1570 1614 0
1614 1611 -1592 0
-1614 -1611 -1592 0
-1614 1611 1592 0
1614 -1611 1592 0
-1508 -1570 1613 0
-1570 -1611 1613 0
-1508 -1611 1613 0
1508 1570 -1613 0
1570 1611 -1613 0
1508 1611 -1613 0
1507 1569 -1616 0
-1507 -1569 -1616 0
-1507 1569 1616 0
1507 -1569 1616 0
1616 1613 -1591 0
-1616 -1613 -1591 0
-1616 1613 1591 0
1616 -1613 1591 0
-1507 -1569 1615 0
-1569 -1613 1615 0
-1507 -1613 1615 0
1507 1569 -1615 0
1569 1613 -1615 0
1507 1613 -1615 0
1506 1568 -1618 0
-1506 -1568 -1618 0
-1506 1568 1618 0
1506 -1568 1618 0
1618 1615 -1590 0
-1618 -1615 -1590 0
-1618 1615 1590 0
1618 -1615 1590 0
-1506 -1568 1617 0
-1568 -1615 1617 0
-1506 -1615 1617 0
1506 1568 -1617 0
1568 1615 -1617 0
1506 1615 -1617 0
1505 1567 -1620 0
-1505 -1567 -1620 0
-1505 1567 1620 0
1505 -1567 1620 0
1620 1617 -1589 0
-1620 -1617 -1589 0
-1620 1617 1589 0
1620 -1617 1589 0
-1505 -1567 1619 0
-1567 -1617 1619 0
-1505 -1617 1619 0
1505 1567 -1619 0
1567 1617 -1619 0
1505 1617 -1619 0
1504 1566 -1622 0
-1504 -1566 -1622 0
-1504 1566 1622 0
1504 -1566 1622 0
1622 1619 -1588 0
-1622 -1619 -1588 0
-1622 1619 1588 0
1622 -1619 1588 0
-1504 -1566 1621 0
-1566 -1619 1621 0
-1504 -1619 1621 0
1504 1566 -1621 0
1566 1619 -1621 0
1504 1619 -1621 0
1503 1565 -1624 0
-1503 -1565 -1624 0
-1503 1565 1624 0
1503 -1565 1624 0
1624 1621 -1587 0
-1624 -1621 -1587 0
-1624 1621 1587 0
1624 -1621 1587 0
-1503 -1565 1623 0
-1565 -1621 1623 0
-1503 -1621 1623 0
1503 1565 -1623 0
1565 1621 -1623 0
1503 1621 -1623 0
1502 1564 -1626 0
-1502 -1564 -1626 0
-1502 1564 1626 0
1502 -1564 1626 0
1626 1623 -1586 0
-1626 -1623 -1586 0
-1626 1623 1586 0
1626 -1623 1586 0
-1502 -1564 1625 0
-1564 -1623 1625 0
-1502 -1623 1625 0
1502 1564 -1625 0
1564 1623 -1625 0
1502 1623 -1625 0
1501 1563 -1628 0
-1501 -1563 -1628 0
-1501 1563 1628 0
1501 -1563 1628 0
1628 1625 -1585 0
-1628 -1625 -1585 0
-1628 1625 1585 0
1628 -1625 1585 0
-1501 -1563 1627 0
-1563 -1625 1627 0
-1501 -1625 1627 0
1501 1563 -1627 0
1563 1625 -1627 0
1501 1625 -1627 0
1500 1562 -1630 0
-1500 -1562 -1630 0
-1500 1562 1630 0
1500 -1562 1630 0
1630 1627 -1584 0
-1630 -1627 -1584 0
-1630 1627 1584 0
1630 -1627 1584 0
-1500 -1562 1629 0
-1562 -1627 1629 0
-1500 -1627 1629 0
1500 1562 -1629 0
1562 1627 -1629 0
1500 1627 -1629 0
1499 1561 -1632 0
-1499 -1561 -1632 0
-1499 1561 1632 0
1499 -1561 1632 0
1632 1629 -1583 0
-1632 -1629 -1583 0
-1632 1629 1583 0
1632 -1629 1583 0
-1499 -1561 1631 0
-1561 -1629 1631 0
-1499 -1629 1631 0
1499 1561 -1631 0
1561 1629 -1631 0
1499 1629 -1631 0
1498 1560 -1634 0
-1498 -1560 -1634 0
-1498 1560 1634 0
1498 -1560 1634 0
1634 1631 -1582 0
-1634 -1631 -1582 0
-1634 1631 1582 0
1634 -1631 1582 0
-1498 -1560 1633 0
-1560 -1631 1633 0
-1498 -1631 1633 0
1498 1560 -1633 0
1560 1631 -1633 0
1498 1631 -1633 0
1497 1559 -1636 0
-1497 -1559 -1636 0
-1497 1559 1636 0
1497 -1559 1636 0
1636 1633 -1581 0
-1636 -1633 -1581 0
-1636 1633 1581 0
1636 -1633 1581 0
-1497 -1559 1635 0
-1559 -1633 1635 0
-1497 -1633 1635 0
1497 1559 -1635 0
1559 1633 -1635 0
1497 1633 -1635 0
1496 1558 -1638 0
-1496 -1558 -1638 0
-1496 1558 1638 0
1496 -1558 1638 0
1638 1635 -1580 0
-1638 -1635 -1580 0
-1638 1635 1580 0
1638 -1635 1580 0
-1496 -1558 1637 0
-1558 -1635 1637 0
-1496 -1635 1637 0
1496 1558 -1637 0
1558 1635 -1637 0
1496 1635 -1637 0
1495 1557 -1639 0
-1495 -1557 -1639 0
-1495 1557 1639 0
1495 -1557 1639 0
1639 1637 -1579 0
-1639 -1637 -1579 0
-1639 1637 1579 0
1639 -1637 1579 0
-1495 -1557 1578 0
-1557 -1637 1578 0
-1495 -1637 1578 0
1495 1557 -1578 0
1557 1637 -1578 0
1495 1637 -1578 0
22 -1640 0
1 -1640 0
-22 -1 1640 0
22 -1641 0
2 -1641 0
-22 -2 1641 0
22 -1642 0
3 -1642 0
-22 -3 1642 0
22 -1643 0
4 -1643 0
-22 -4 1643 0
22 -1644 0
5 -1644 0
-22 -5 1644 0
22 -1645 0
6 -1645 0
-22 -6 1645 0
22 -1646 0
7 -1646 0
-22 -7 1646 0
22 -1647 0
8 -1647 0
-22 -8 1647 0
22 -1648 0
9 -1648 0
-22 -9 1648 0
22 -1649 0
10 -1649 0
-22 -10 1649 0
22 -1650 0
11 -1650 0
-22 -11 1650 0
22 -1651 0
12 -1651 0
-22 -12 1651 0
22 -1652 0
13 -1652 0
-22 -13 1652 0
22 -1653 0
14 -1653 0
-22 -14 1653 0
22 -1654 0
15 -1654 0
-22 -15 1654 0
22 -1655 0
16 -1655 0
-22 -16 1655 0
22 -1656 0
17 -1656 0
-22 -17 1656 0
22 -1657 0
18 -1657 0
-22 -18 1657 0
22 -1658 0
19 -1658 0
-22 -19 1658 0
22 -1659 0
20 -1659 0
-22 -20 1659 0
22 -1660 0
21 -1660 0
-22 -21 1660 0
1598 1660 -1682 0
-1598 -1660 -1682 0
-1598 1660 1682 0
1598 -1660 1682 0
1598 -1683 0
1660 -1683 0
-1598 -1660 1683 0
1597 1659 -1685 0
-1597 -1659 -1685 0
-1597 1659 1685 0
1597 -1659 1685 0
1685 1683 -1681 0
-1685 -1683 -1681 0
-1685 1683 1681 0
1685 -1683 1681 0
-1597 -1659 1684 0
-1659 -1683 1684 0
-1597 -1683 1684 0
1597 1659 -1684 0
1659 1683 -1684 0
1597 1683 -1684 0
1596 1658 -1687 0
-1596 -1658 -1687 0
-1596 1658 1687 0
1596 -1658 1687 0
1687 1684 -1680 0
-1687 -1684 -1680 0
-1687 1684 1680 0
1687 -1684 1680 0
-1596 -1658 1686 0
-1658 -1684 1686 0
-1596 -1684 1686 0
1596 1658 -1686 0
1658 1684 -1686 0
1596 1684 -1686 0
1595 1657 -1689 0
-1595 -1657 -1689 0
-1595 1657 1689 0
1595 -1657 1689 0
1689 1686 -1679 0
-1689 -1686 -1679 0
-1689 1686 1679 0
1689 -1686 1679 0
-1595 -1657 1688 0
-1657 -1686 1688 0
-1595 -1686 1688 0
1595 1657 -1688 0
1657 1686 -1688 0
1595 1686 -1688 0
1594 1656 -1691 0
-1594 -1656 -1691 0
-1594 1656 1691 0
1594 -1656 1691 0
1691 1688 -1678 0
-1691 -1688 -1678 0
-1691 1688 1678 0
1691 -1688 1678 0
-1594 -1656 1690 0
-1656 -1688 1690 0
-1594 -1688 1690 0
1594 1656 -1690 0
1656 1688 -1690 0
1594 1688 -1690 0
1593 1655 -1693 0
-1593 -1655 -1693 0
-1593 1655 1693 0
1593 -1655 1693 0
1693 1690 -1677 0
-1693 -1690 -1677 0
-1693 1690 1677 0
1693 -1690 1677 0
-1593 -1655 1692 0
-1655 -1690 1692 0
-1593 -1690 1692 0
1593 1655 -1692 0
1655 1690 -1692 0
1593 1690 -1692 0
1592 1654 -1695 0
-1592 -1654 -1695 0
-1592 1654 1695 0
1592 -1654 1695 0
1695 1692 -1676 0
-1695 -1692 -1676 0
-1695 1692 1676 0
1695 -1692 1676 0
-1592 -1654 1694 0
-1654 -1692 1694 0
-1592 -1692 1694 0
1592 1654 -1694 0
1654 1692 -1694 0
1592 1692 -1694 0
1591 1653 -1697 0
-1591 -1653 -1697 0
-1591 1653 1697 0
1591 -1653 1697 0
1697 1694 -1675 0
-1697 -1694 -1675 0
-1697 1694 1675 0
1697 -1694 1675 0
-1591 -1653 1696 0
-1653 -1694 1696 0
-1591 -1694 1696 0
1591 1653 -1696 0
1653 1694 -1696 0
1591 1694 -1696 0
1590 1652 -1699 0
-1590 -1652 -1699 0
-1590 1652 1699 0
1590 -1652 1699 0
1699 1696 -1674 0
-1699 -1696 -1674 0
-1699 1696 1674 0
1699 -1696 1674 0
-1590 -1652 1698 0
-1652 -1696 1698 0
-1590 -1696 1698 0
1590 1652 -1698 0
1652 1696 -1698 0
1590 1696 -1698 0
1589 1651 -1701 0
-1589 -1651 -1701 0
-1589 1651 1701 0
1589 -1651 1701 0
1701 1698 -1673 0
-1701 -1698 -1673 0
-1701 1698 1673 0
1701 -1698 1673 0
-1589 -1651 1700 0
-1651 -1698 1700 0
-1589 -1698 1700 0
1589 1651 -1700 0
1651 1698 -1700 0
1589 1698 -1700 0
1588 1650 -1703 0
-1588 -1650 -1703 0
-1588 1650 1703 0
1588 -1650 1703 0
1703 1700 -1672 0
-1703 -1700 -1672 0
-1703 1700 1672 0
1703 -1700 1672 0
-1588 -1650 1702 0
-1650 -1700 1702 0
-1588 -1700 1702 0
1588 1650 -1702 0
1650 1700 -1702 0
1588 1700 -1702 0
1587 1649 -1705 0
-1587 -1649 -1705 0
-1587 1649 1705 0
1587 -1649 1705 0
1705 1702 -1671 0
-1705 -1702 -1671 0
-1705 1702 1671 0
1705 -1702 1671 0
-1587 -1649 1704 0
-1649 -1702 1704 0
-1587 -1702 1704 0
1587 1649 -1704 0
1649 1702 -1704 0
1587 1702 -1704 0
1586 1648 -1707 0
-1586 -1648 -1707 0
-1586 1648 1707 0
1586 -1648 1707 0
1707 1704 -1670 0
-1707 -1704 -1670 0
-1707 1704 1670 0
1707 -1704 1670 0
-1586 -1648 1706 0
-1648 -1704 1706 0
-1586 -1704 1706 0
1586 1648 -1706 0
1648 1704 -1706 0
1586 1704 -1706 0
1585 1647 -1709 0
-1585 -1647 -1709 0
-1585 1647 1709 0
1585 -1647 1709 0
1709 1706 -1669 0
-1709 -1706 -1669 0
-1709 1706 1669 0
1709 -1706 1669 0
-1585 -1647 1708 0
-1647 -1706 1708 0
-1585 -1706 1708 0
1585 1647 -1708 0
1647 1706 -1708 0
1585 1706 -1708 0
1584 1646 -1711 0
-1584 -1646 -1711 0
-1584 1646 1711 0
1584 -1646 1711 0
1711 1708 -1668 0
-1711 -1708 -1668 0
-1711 1708 1668 0
1711 -1708 1668 0
-1584 -1646 1710 0
-1646 -1708 1710 0
-1584 -1708 1710 0
1584 1646 -1710 0
1646 1708 -1710 0
1584 1708 -1710 0
1583 1645 -1713 0
-1583 -1645 -1713 0
-1583 1645 1713 0
1583 -1645 1713 0
1713 1710 -1667 0
-1713 -1710 -1667 0
-1713 1710 1667 0
1713 -1710 1667 0
-1583 -1645 1712 0
-1645 -1710 1712 0
-1583 -1710 1712 0
1583 1645 -1712 0
1645 1710 -1712 0
1583 1710 -1712 0
1582 1644 -1715 0
-1582 -1644 -1715 0
-1582 1644 1715 0
1582 -1644 1715 0
1715 1712 -1666 0
-1715 -1712 -1666 0
-1715 1712 1666 0
1715 -1712 1666 0
-1582 -1644 1714 0
-1644 -1712 1714 0
-1582 -1712 1714 0
1582 1644 -1714 0
1644 1712 -1714 0
1582 1712 -1714 0
1581 1643 -1717 0
-1581 -1643 -1717 0
-1581 1643 1717 0
1581 -1643 1717 0
1717 1714 -1665 0
-1717 -1714 -1665 0
-1717 1714 1665 0
1717 -1714 1665 0
-1581 -1643 1716 0
-1643 -1714 1716 0
-1581 -1714 1716 0
1581 1643 -1716 0
1643 1714 -1716 0
1581 1714 -1716 0
1580 1642 -1719 0
-1580 -1642 -1719 0
-1580 1642 1719 0
1580 -1642 1719 0
1719 1716 -1664 0
-1719 -1716 -1664 0
-1719 1716 1664 0
1719 -1716 1664 0
-1580 -1642 1718 0
-1642 -1716 1718 0
-1580 -1716 1718 0
1580 1642 -1718 0
1642 1716 -1718 0
1580 1716 -1718 0
1579 1641 -1721 0
-1579 -1641 -1721 0
-1579 1641 1721 0
1579 -1641 1721 0
1721 1718 -1663 0
-1721 -1718 -1663 0
-1721 1718 1663 0
1721 -1718 1663 0
-1579 -1641 1720 0
-1641 -1718 1720 0
-1579 -1718 1720 0
1579 1641 -1720 0
1641 1718 -1720 0
1579 1718 -1720 0
1578 1640 -1722 0
-1578 -1640 -1722 0
-1578 1640 1722 0
1578 -1640 1722 0
1722 1720 -1662 0
-1722 -1720 -1662 0
-1722 1720 1662 0
1722 -1720 1662 0
-1578 -1640 1661 0
-1640 -1720 1661 0
-1578 -1720 1661 0
1578 1640 -1661 0
1640 1720 -1661 0
1578 1720 -1661 0
-1661 0
1662 0
1663 0
-1664 0
-1665 0
-1666 0
-1667 0
1668 0
1669 0
-1670 0
-1671 0
1672 0
-1673 0
-1674 0
1675 0
-1676 0
1677 0
-1678 0
1679 0
-1680 0
-1681 0
1682 0
1599 0
1516 0
1433 0
1350 0
-1267 0
-1184 0
1101 0
-1018 0
935 0
852 0
-769 0
-686 0
603 0
520 0
-437 0
-354 0
271 0
-188 0
-106 0
63 0
21 0
42 0
