-5 37 0
-1 37 0
-37 1 5 0
-5 -1 38 0
-38 5 0
-38 1 0
-9 39 0
-37 39 0
-39 37 9 0
-9 -37 40 0
-38 40 0
-40 9 38 0
-40 37 38 0
-40 9 37 38 0
-9 -38 0
-13 41 0
-39 41 0
-41 39 13 0
-13 -39 42 0
-40 42 0
-42 13 40 0
-42 39 40 0
-42 13 39 40 0
-13 -40 0
-21 43 0
-41 43 0
-43 41 21 0
-21 -41 44 0
-42 44 0
-44 21 42 0
-44 41 42 0
-44 21 41 42 0
-21 -42 0
-25 45 0
-43 45 0
-45 43 25 0
-25 -43 46 0
-44 46 0
-46 25 44 0
-46 43 44 0
-46 25 43 44 0
-25 -44 0
-29 47 0
-45 47 0
-47 45 29 0
-29 -45 48 0
-46 48 0
-48 29 46 0
-48 45 46 0
-48 29 45 46 0
-29 -46 0
-33 -48 0
33 47 0
48 33 0
48 47 0
48 33 47 0
-6 49 0
-2 49 0
-49 2 6 0
-6 -2 50 0
-50 6 0
-50 2 0
-10 51 0
-49 51 0
-51 49 10 0
-10 -49 52 0
-50 52 0
-52 10 50 0
-52 49 50 0
-52 10 49 50 0
-10 -50 0
-14 53 0
-51 53 0
-53 51 14 0
-14 -51 54 0
-52 54 0
-54 14 52 0
-54 51 52 0
-54 14 51 52 0
-14 -52 0
-22 55 0
-53 55 0
-55 53 22 0
-22 -53 56 0
-54 56 0
-56 22 54 0
-56 53 54 0
-56 22 53 54 0
-22 -54 0
-26 57 0
-55 57 0
-57 55 26 0
-26 -55 58 0
-56 58 0
-58 26 56 0
-58 55 56 0
-58 26 55 56 0
-26 -56 0
-30 59 0
-57 59 0
-59 57 30 0
-30 -57 60 0
-58 60 0
-60 30 58 0
-60 57 58 0
-60 30 57 58 0
-30 -58 0
-34 -60 0
34 59 0
60 34 0
60 59 0
60 34 59 0
-7 61 0
-3 61 0
-61 3 7 0
-7 -3 62 0
-62 7 0
-62 3 0
-11 63 0
-61 63 0
-63 61 11 0
-11 -61 64 0
-62 64 0
-64 11 62 0
-64 61 62 0
-64 11 61 62 0
-11 -62 0
-15 65 0
-63 65 0
-65 63 15 0
-15 -63 66 0
-64 66 0
-66 15 64 0
-66 63 64 0
-66 15 63 64 0
-15 -64 0
-23 67 0
-65 67 0
-67 65 23 0
-23 -65 68 0
-66 68 0
-68 23 66 0
-68 65 66 0
-68 23 65 66 0
-23 -66 0
-27 69 0
-67 69 0
-69 67 27 0
-27 -67 70 0
-68 70 0
-70 27 68 0
-70 67 68 0
-70 27 67 68 0
-27 -68 0
-31 71 0
-69 71 0
-71 69 31 0
-31 -69 72 0
-70 72 0
-72 31 70 0
-72 69 70 0
-72 31 69 70 0
-31 -70 0
-35 -72 0
35 71 0
72 35 0
72 71 0
72 35 71 0
-8 73 0
-4 73 0
-73 4 8 0
-8 -4 74 0
-74 8 0
-74 4 0
-12 75 0
-73 75 0
-75 73 12 0
-12 -73 76 0
-74 76 0
-76 12 74 0
-76 73 74 0
-76 12 73 74 0
-12 -74 0
-16 77 0
-75 77 0
-77 75 16 0
-16 -75 78 0
-76 78 0
-78 16 76 0
-78 75 76 0
-78 16 75 76 0
-16 -76 0
-24 79 0
-77 79 0
-79 77 24 0
-24 -77 80 0
-78 80 0
-80 24 78 0
-80 77 78 0
-80 24 77 78 0
-24 -78 0
-28 81 0
-79 81 0
-81 79 28 0
-28 -79 82 0
-80 82 0
-82 28 80 0
-82 79 80 0
-82 28 79 80 0
-28 -80 0
-32 83 0
-81 83 0
-83 81 32 0
-32 -81 84 0
-82 84 0
-84 32 82 0
-84 81 82 0
-84 32 81 82 0
-32 -82 0
-36 -84 0
36 83 0
84 36 0
84 83 0
84 36 83 0
-5 85 0
-1 85 0
-85 1 5 0
-5 -1 86 0
-86 5 0
-86 1 0
13 85 0
86 13 0
86 85 0
86 13 85 0
-6 87 0
-2 87 0
-87 2 6 0
-6 -2 88 0
-88 6 0
-88 2 0
14 87 0
88 14 0
88 87 0
88 14 87 0
-7 89 0
-3 89 0
-89 3 7 0
-7 -3 90 0
-90 7 0
-90 3 0
15 89 0
90 15 0
90 89 0
90 15 89 0
-8 91 0
-4 91 0
-91 4 8 0
-8 -4 92 0
-92 8 0
-92 4 0
16 91 0
92 16 0
92 91 0
92 16 91 0
-9 93 0
-5 93 0
-93 5 9 0
-9 -5 94 0
-94 9 0
-94 5 0
21 93 0
94 21 0
94 93 0
94 21 93 0
-10 95 0
-6 95 0
-95 6 10 0
-10 -6 96 0
-96 10 0
-96 6 0
22 95 0
96 22 0
96 95 0
96 22 95 0
-11 97 0
-7 97 0
-97 7 11 0
-11 -7 98 0
-98 11 0
-98 7 0
23 97 0
98 23 0
98 97 0
98 23 97 0
-12 99 0
-8 99 0
-99 8 12 0
-12 -8 100 0
-100 12 0
-100 8 0
24 99 0
100 24 0
100 99 0
100 24 99 0
-25 101 0
-13 101 0
-101 13 25 0
-25 -13 102 0
-102 25 0
-102 13 0
29 101 0
102 29 0
102 101 0
102 29 101 0
-26 103 0
-14 103 0
-103 14 26 0
-26 -14 104 0
-104 26 0
-104 14 0
30 103 0
104 30 0
104 103 0
104 30 103 0
-27 105 0
-15 105 0
-105 15 27 0
-27 -15 106 0
-106 27 0
-106 15 0
31 105 0
106 31 0
106 105 0
106 31 105 0
-28 107 0
-16 107 0
-107 16 28 0
-28 -16 108 0
-108 28 0
-108 16 0
32 107 0
108 32 0
108 107 0
108 32 107 0
-29 109 0
-21 109 0
-109 21 29 0
-29 -21 110 0
-110 29 0
-110 21 0
33 109 0
110 33 0
110 109 0
110 33 109 0
-30 111 0
-22 111 0
-111 22 30 0
-30 -22 112 0
-112 30 0
-112 22 0
34 111 0
112 34 0
112 111 0
112 34 111 0
-31 113 0
-23 113 0
-113 23 31 0
-31 -23 114 0
-114 31 0
-114 23 0
35 113 0
114 35 0
114 113 0
114 35 113 0
-32 115 0
-24 115 0
-115 24 32 0
-32 -24 116 0
-116 32 0
-116 24 0
36 115 0
116 36 0
116 115 0
116 36 115 0
