1 2 3 4 5 6 7 8 9 10 11 12 13 14 15 16 17 18 19 20 21 22 23 24 0
228 -229 0
217 -229 0
-228 -217 229 0
228 -230 0
218 -230 0
-228 -218 230 0
228 -231 0
219 -231 0
-228 -219 231 0
228 -232 0
220 -232 0
-228 -220 232 0
228 -233 0
221 -233 0
-228 -221 233 0
228 -234 0
222 -234 0
-228 -222 234 0
228 -235 0
223 -235 0
-228 -223 235 0
228 -236 0
224 -236 0
-228 -224 236 0
228 -237 0
225 -237 0
-228 -225 237 0
228 -238 0
226 -238 0
-228 -226 238 0
228 -239 0
227 -239 0
-228 -227 239 0
228 -240 0
228 -240 0
-228 -228 240 0
227 -241 0
217 -241 0
-227 -217 241 0
227 -242 0
218 -242 0
-227 -218 242 0
227 -243 0
219 -243 0
-227 -219 243 0
227 -244 0
220 -244 0
-227 -220 244 0
227 -245 0
221 -245 0
-227 -221 245 0
227 -246 0
222 -246 0
-227 -222 246 0
227 -247 0
223 -247 0
-227 -223 247 0
227 -248 0
224 -248 0
-227 -224 248 0
227 -249 0
225 -249 0
-227 -225 249 0
227 -250 0
226 -250 0
-227 -226 250 0
227 -251 0
227 -251 0
-227 -227 251 0
227 -252 0
228 -252 0
-227 -228 252 0
239 252 -265 0
-239 -252 -265 0
-239 252 265 0
239 -252 265 0
239 -266 0
252 -266 0
-239 -252 266 0
238 251 -268 0
-238 -251 -268 0
-238 251 268 0
238 -251 268 0
268 266 -264 0
-268 -266 -264 0
-268 266 264 0
268 -266 264 0
-238 -251 267 0
-251 -266 267 0
-238 -266 267 0
238 251 -267 0
251 266 -267 0
238 266 -267 0
237 250 -270 0
-237 -250 -270 0
-237 250 270 0
237 -250 270 0
270 267 -263 0
-270 -267 -263 0
-270 267 263 0
270 -267 263 0
-237 -250 269 0
-250 -267 269 0
-237 -267 269 0
237 250 -269 0
250 267 -269 0
237 267 -269 0
236 249 -272 0
-236 -249 -272 0
-236 249 272 0
236 -249 272 0
272 269 -262 0
-272 -269 -262 0
-272 269 262 0
272 -269 262 0
-236 -249 271 0
-249 -269 271 0
-236 -269 271 0
236 249 -271 0
249 269 -271 0
236 269 -271 0
235 248 -274 0
-235 -248 -274 0
-235 248 274 0
235 -248 274 0
274 271 -261 0
-274 -271 -261 0
-274 271 261 0
274 -271 261 0
-235 -248 273 0
-248 -271 273 0
-235 -271 273 0
235 248 -273 0
248 271 -273 0
235 271 -273 0
234 247 -276 0
-234 -247 -276 0
-234 247 276 0
234 -247 276 0
276 273 -260 0
-276 -273 -260 0
-276 273 260 0
276 -273 260 0
-234 -247 275 0
-247 -273 275 0
-234 -273 275 0
234 247 -275 0
247 273 -275 0
234 273 -275 0
233 246 -278 0
-233 -246 -278 0
-233 246 278 0
233 -246 278 0
278 275 -259 0
-278 -275 -259 0
-278 275 259 0
278 -275 259 0
-233 -246 277 0
-246 -275 277 0
-233 -275 277 0
233 246 -277 0
246 275 -277 0
233 275 -277 0
232 245 -280 0
-232 -245 -280 0
-232 245 280 0
232 -245 280 0
280 277 -258 0
-280 -277 -258 0
-280 277 258 0
280 -277 258 0
-232 -245 279 0
-245 -277 279 0
-232 -277 279 0
232 245 -279 0
245 277 -279 0
232 277 -279 0
231 244 -282 0
-231 -244 -282 0
-231 244 282 0
231 -244 282 0
282 279 -257 0
-282 -279 -257 0
-282 279 257 0
282 -279 257 0
-231 -244 281 0
-244 -279 281 0
-231 -279 281 0
231 244 -281 0
244 279 -281 0
231 279 -281 0
230 243 -284 0
-230 -243 -284 0
-230 243 284 0
230 -243 284 0
284 281 -256 0
-284 -281 -256 0
-284 281 256 0
284 -281 256 0
-230 -243 283 0
-243 -281 283 0
-230 -281 283 0
230 243 -283 0
243 281 -283 0
230 281 -283 0
229 242 -286 0
-229 -242 -286 0
-229 242 286 0
229 -242 286 0
286 283 -255 0
-286 -283 -255 0
-286 283 255 0
286 -283 255 0
-229 -242 285 0
-242 -283 285 0
-229 -283 285 0
229 242 -285 0
242 283 -285 0
229 283 -285 0
241 285 -254 0
-241 -285 -254 0
-241 285 254 0
241 -285 254 0
241 -253 0
285 -253 0
-241 -285 253 0
226 -287 0
217 -287 0
-226 -217 287 0
226 -288 0
218 -288 0
-226 -218 288 0
226 -289 0
219 -289 0
-226 -219 289 0
226 -290 0
220 -290 0
-226 -220 290 0
226 -291 0
221 -291 0
-226 -221 291 0
226 -292 0
222 -292 0
-226 -222 292 0
226 -293 0
223 -293 0
-226 -223 293 0
226 -294 0
224 -294 0
-226 -224 294 0
226 -295 0
225 -295 0
-226 -225 295 0
226 -296 0
226 -296 0
-226 -226 296 0
226 -297 0
227 -297 0
-226 -227 297 0
226 -298 0
228 -298 0
-226 -228 298 0
264 298 -311 0
-264 -298 -311 0
-264 298 311 0
264 -298 311 0
264 -312 0
298 -312 0
-264 -298 312 0
263 297 -314 0
-263 -297 -314 0
-263 297 314 0
263 -297 314 0
314 312 -310 0
-314 -312 -310 0
-314 312 310 0
314 -312 310 0
-263 -297 313 0
-297 -312 313 0
-263 -312 313 0
263 297 -313 0
297 312 -313 0
263 312 -313 0
262 296 -316 0
-262 -296 -316 0
-262 296 316 0
262 -296 316 0
316 313 -309 0
-316 -313 -309 0
-316 313 309 0
316 -313 309 0
-262 -296 315 0
-296 -313 315 0
-262 -313 315 0
262 296 -315 0
296 313 -315 0
262 313 -315 0
261 295 -318 0
-261 -295 -318 0
-261 295 318 0
261 -295 318 0
318 315 -308 0
-318 -315 -308 0
-318 315 308 0
318 -315 308 0
-261 -295 317 0
-295 -315 317 0
-261 -315 317 0
261 295 -317 0
295 315 -317 0
261 315 -317 0
260 294 -320 0
-260 -294 -320 0
-260 294 320 0
260 -294 320 0
320 317 -307 0
-320 -317 -307 0
-320 317 307 0
320 -317 307 0
-260 -294 319 0
-294 -317 319 0
-260 -317 319 0
260 294 -319 0
294 317 -319 0
260 317 -319 0
259 293 -322 0
-259 -293 -322 0
-259 293 322 0
259 -293 322 0
322 319 -306 0
-322 -319 -306 0
-322 319 306 0
322 -319 306 0
-259 -293 321 0
-293 -319 321 0
-259 -319 321 0
259 293 -321 0
293 319 -321 0
259 319 -321 0
258 292 -324 0
-258 -292 -324 0
-258 292 324 0
258 -292 324 0
324 321 -305 0
-324 -321 -305 0
-324 321 305 0
324 -321 305 0
-258 -292 323 0
-292 -321 323 0
-258 -321 323 0
258 292 -323 0
292 321 -323 0
258 321 -323 0
257 291 -326 0
-257 -291 -326 0
-257 291 326 0
257 -291 326 0
326 323 -304 0
-326 -323 -304 0
-326 323 304 0
326 -323 304 0
-257 -291 325 0
-291 -323 325 0
-257 -323 325 0
257 291 -325 0
291 323 -325 0
257 323 -325 0
256 290 -328 0
-256 -290 -328 0
-256 290 328 0
256 -290 328 0
328 325 -303 0
-328 -325 -303 0
-328 325 303 0
328 -325 303 0
-256 -290 327 0
-290 -325 327 0
-256 -325 327 0
256 290 -327 0
290 325 -327 0
256 325 -327 0
255 289 -330 0
-255 -289 -330 0
-255 289 330 0
255 -289 330 0
330 327 -302 0
-330 -327 -302 0
-330 327 302 0
330 -327 302 0
-255 -289 329 0
-289 -327 329 0
-255 -327 329 0
255 289 -329 0
289 327 -329 0
255 327 -329 0
254 288 -332 0
-254 -288 -332 0
-254 288 332 0
254 -288 332 0
332 329 -301 0
-332 -329 -301 0
-332 329 301 0
332 -329 301 0
-254 -288 331 0
-288 -329 331 0
-254 -329 331 0
254 288 -331 0
288 329 -331 0
254 329 -331 0
253 287 -333 0
-253 -287 -333 0
-253 287 333 0
253 -287 333 0
333 331 -300 0
-333 -331 -300 0
-333 331 300 0
333 -331 300 0
-253 -287 299 0
-287 -331 299 0
-253 -331 299 0
253 287 -299 0
287 331 -299 0
253 331 -299 0
225 -334 0
217 -334 0
-225 -217 334 0
225 -335 0
218 -335 0
-225 -218 335 0
225 -336 0
219 -336 0
-225 -219 336 0
225 -337 0
220 -337 0
-225 -220 337 0
225 -338 0
221 -338 0
-225 -221 338 0
225 -339 0
222 -339 0
-225 -222 339 0
225 -340 0
223 -340 0
-225 -223 340 0
225 -341 0
224 -341 0
-225 -224 341 0
225 -342 0
225 -342 0
-225 -225 342 0
225 -343 0
226 -343 0
-225 -226 343 0
225 -344 0
227 -344 0
-225 -227 344 0
225 -345 0
228 -345 0
-225 -228 345 0
310 345 -358 0
-310 -345 -358 0
-310 345 358 0
310 -345 358 0
310 -359 0
345 -359 0
-310 -345 359 0
309 344 -361 0
-309 -344 -361 0
-309 344 361 0
309 -344 361 0
361 359 -357 0
-361 -359 -357 0
-361 359 357 0
361 -359 357 0
-309 -344 360 0
-344 -359 360 0
-309 -359 360 0
309 344 -360 0
344 359 -360 0
309 359 -360 0
308 343 -363 0
-308 -343 -363 0
-308 343 363 0
308 -343 363 0
363 360 -356 0
-363 -360 -356 0
-363 360 356 0
363 -360 356 0
-308 -343 362 0
-343 -360 362 0
-308 -360 362 0
308 343 -362 0
343 360 -362 0
308 360 -362 0
307 342 -365 0
-307 -342 -365 0
-307 342 365 0
307 -342 365 0
365 362 -355 0
-365 -362 -355 0
-365 362 355 0
365 -362 355 0
-307 -342 364 0
-342 -362 364 0
-307 -362 364 0
307 342 -364 0
342 362 -364 0
307 362 -364 0
306 341 -367 0
-306 -341 -367 0
-306 341 367 0
306 -341 367 0
367 364 -354 0
-367 -364 -354 0
-367 364 354 0
367 -364 354 0
-306 -341 366 0
-341 -364 366 0
-306 -364 366 0
306 341 -366 0
341 364 -366 0
306 364 -366 0
305 340 -369 0
-305 -340 -369 0
-305 340 369 0
305 -340 369 0
369 366 -353 0
-369 -366 -353 0
-369 366 353 0
369 -366 353 0
-305 -340 368 0
-340 -366 368 0
-305 -366 368 0
305 340 -368 0
340 366 -368 0
305 366 -368 0
304 339 -371 0
-304 -339 -371 0
-304 339 371 0
304 -339 371 0
371 368 -352 0
-371 -368 -352 0
-371 368 352 0
371 -368 352 0
-304 -339 370 0
-339 -368 370 0
-304 -368 370 0
304 339 -370 0
339 368 -370 0
304 368 -370 0
303 338 -373 0
-303 -338 -373 0
-303 338 373 0
303 -338 373 0
373 370 -351 0
-373 -370 -351 0
-373 370 351 0
373 -370 351 0
-303 -338 372 0
-338 -370 372 0
-303 -370 372 0
303 338 -372 0
338 370 -372 0
303 370 -372 0
302 337 -375 0
-302 -337 -375 0
-302 337 375 0
302 -337 375 0
375 372 -350 0
-375 -372 -350 0
-375 372 350 0
375 -372 350 0
-302 -337 374 0
-337 -372 374 0
-302 -372 374 0
302 337 -374 0
337 372 -374 0
302 372 -374 0
301 336 -377 0
-301 -336 -377 0
-301 336 377 0
301 -336 377 0
377 374 -349 0
-377 -374 -349 0
-377 374 349 0
377 -374 349 0
-301 -336 376 0
-336 -374 376 0
-301 -374 376 0
301 336 -376 0
336 374 -376 0
301 374 -376 0
300 335 -379 0
-300 -335 -379 0
-300 335 379 0
300 -335 379 0
379 376 -348 0
-379 -376 -348 0
-379 376 348 0
379 -376 348 0
-300 -335 378 0
-335 -376 378 0
-300 -376 378 0
300 335 -378 0
335 376 -378 0
300 376 -378 0
299 334 -380 0
-299 -334 -380 0
-299 334 380 0
299 -334 380 0
380 378 -347 0
-380 -378 -347 0
-380 378 347 0
380 -378 347 0
-299 -334 346 0
-334 -378 346 0
-299 -378 346 0
299 334 -346 0
334 378 -346 0
299 378 -346 0
224 -381 0
217 -381 0
-224 -217 381 0
224 -382 0
218 -382 0
-224 -218 382 0
224 -383 0
219 -383 0
-224 -219 383 0
224 -384 0
220 -384 0
-224 -220 384 0
224 -385 0
221 -385 0
-224 -221 385 0
224 -386 0
222 -386 0
-224 -222 386 0
224 -387 0
223 -387 0
-224 -223 387 0
224 -388 0
224 -388 0
-224 -224 388 0
224 -389 0
225 -389 0
-224 -225 389 0
224 -390 0
226 -390 0
-224 -226 390 0
224 -391 0
227 -391 0
-224 -227 391 0
224 -392 0
228 -392 0
-224 -228 392 0
357 392 -405 0
-357 -392 -405 0
-357 392 405 0
357 -392 405 0
357 -406 0
392 -406 0
-357 -392 406 0
356 391 -408 0
-356 -391 -408 0
-356 391 408 0
356 -391 408 0
408 406 -404 0
-408 -406 -404 0
-408 406 404 0
408 -406 404 0
-356 -391 407 0
-391 -406 407 0
-356 -406 407 0
356 391 -407 0
391 406 -407 0
356 406 -407 0
355 390 -410 0
-355 -390 -410 0
-355 390 410 0
355 -390 410 0
410 407 -403 0
-410 -407 -403 0
-410 407 403 0
410 -407 403 0
-355 -390 409 0
-390 -407 409 0
-355 -407 409 0
355 390 -409 0
390 407 -409 0
355 407 -409 0
354 389 -412 0
-354 -389 -412 0
-354 389 412 0
354 -389 412 0
412 409 -402 0
-412 -409 -402 0
-412 409 402 0
412 -409 402 0
-354 -389 411 0
-389 -409 411 0
-354 -409 411 0
354 389 -411 0
389 409 -411 0
354 409 -411 0
353 388 -414 0
-353 -388 -414 0
-353 388 414 0
353 -388 414 0
414 411 -401 0
-414 -411 -401 0
-414 411 401 0
414 -411 401 0
-353 -388 413 0
-388 -411 413 0
-353 -411 413 0
353 388 -413 0
388 411 -413 0
353 411 -413 0
352 387 -416 0
-352 -387 -416 0
-352 387 416 0
352 -387 416 0
416 413 -400 0
-416 -413 -400 0
-416 413 400 0
416 -413 400 0
-352 -387 415 0
-387 -413 415 0
-352 -413 415 0
352 387 -415 0
387 413 -415 0
352 413 -415 0
351 386 -418 0
-351 -386 -418 0
-351 386 418 0
351 -386 418 0
418 415 -399 0
-418 -415 -399 0
-418 415 399 0
418 -415 399 0
-351 -386 417 0
-386 -415 417 0
-351 -415 417 0
351 386 -417 0
386 415 -417 0
351 415 -417 0
350 385 -420 0
-350 -385 -420 0
-350 385 420 0
350 -385 420 0
420 417 -398 0
-420 -417 -398 0
-420 417 398 0
420 -417 398 0
-350 -385 419 0
-385 -417 419 0
-350 -417 419 0
350 385 -419 0
385 417 -419 0
350 417 -419 0
349 384 -422 0
-349 -384 -422 0
-349 384 422 0
349 -384 422 0
422 419 -397 0
-422 -419 -397 0
-422 419 397 0
422 -419 397 0
-349 -384 421 0
-384 -419 421 0
-349 -419 421 0
349 384 -421 0
384 419 -421 0
349 419 -421 0
348 383 -424 0
-348 -383 -424 0
-348 383 424 0
348 -383 424 0
424 421 -396 0
-424 -421 -396 0
-424 421 396 0
424 -421 396 0
-348 -383 423 0
-383 -421 423 0
-348 -421 423 0
348 383 -423 0
383 421 -423 0
348 421 -423 0
347 382 -426 0
-347 -382 -426 0
-347 382 426 0
347 -382 426 0
426 423 -395 0
-426 -423 -395 0
-426 423 395 0
426 -423 395 0
-347 -382 425 0
-382 -423 425 0
-347 -423 425 0
347 382 -425 0
382 423 -425 0
347 423 -425 0
346 381 -427 0
-346 -381 -427 0
-346 381 427 0
346 -381 427 0
427 425 -394 0
-427 -425 -394 0
-427 425 394 0
427 -425 394 0
-346 -381 393 0
-381 -425 393 0
-346 -425 393 0
346 381 -393 0
381 425 -393 0
346 425 -393 0
223 -428 0
217 -428 0
-223 -217 428 0
223 -429 0
218 -429 0
-223 -218 429 0
223 -430 0
219 -430 0
-223 -219 430 0
223 -431 0
220 -431 0
-223 -220 431 0
223 -432 0
221 -432 0
-223 -221 432 0
223 -433 0
222 -433 0
-223 -222 433 0
223 -434 0
223 -434 0
-223 -223 434 0
223 -435 0
224 -435 0
-223 -224 435 0
223 -436 0
225 -436 0
-223 -225 436 0
223 -437 0
226 -437 0
-223 -226 437 0
223 -438 0
227 -438 0
-223 -227 438 0
223 -439 0
228 -439 0
-223 -228 439 0
404 439 -452 0
-404 -439 -452 0
-404 439 452 0
404 -439 452 0
404 -453 0
439 -453 0
-404 -439 453 0
403 438 -455 0
-403 -438 -455 0
-403 438 455 0
403 -438 455 0
455 453 -451 0
-455 -453 -451 0
-455 453 451 0
455 -453 451 0
-403 -438 454 0
-438 -453 454 0
-403 -453 454 0
403 438 -454 0
438 453 -454 0
403 453 -454 0
402 437 -457 0
-402 -437 -457 0
-402 437 457 0
402 -437 457 0
457 454 -450 0
-457 -454 -450 0
-457 454 450 0
457 -454 450 0
-402 -437 456 0
-437 -454 456 0
-402 -454 456 0
402 437 -456 0
437 454 -456 0
402 454 -456 0
401 436 -459 0
-401 -436 -459 0
-401 436 459 0
401 -436 459 0
459 456 -449 0
-459 -456 -449 0
-459 456 449 0
459 -456 449 0
-401 -436 458 0
-436 -456 458 0
-401 -456 458 0
401 436 -458 0
436 456 -458 0
401 456 -458 0
400 435 -461 0
-400 -435 -461 0
-400 435 461 0
400 -435 461 0
461 458 -448 0
-461 -458 -448 0
-461 458 448 0
461 -458 448 0
-400 -435 460 0
-435 -458 460 0
-400 -458 460 0
400 435 -460 0
435 458 -460 0
400 458 -460 0
399 434 -463 0
-399 -434 -463 0
-399 434 463 0
399 -434 463 0
463 460 -447 0
-463 -460 -447 0
-463 460 447 0
463 -460 447 0
-399 -434 462 0
-434 -460 462 0
-399 -460 462 0
399 434 -462 0
434 460 -462 0
399 460 -462 0
398 433 -465 0
-398 -433 -465 0
-398 433 465 0
398 -433 465 0
465 462 -446 0
-465 -462 -446 0
-465 462 446 0
465 -462 446 0
-398 -433 464 0
-433 -462 464 0
-398 -462 464 0
398 433 -464 0
433 462 -464 0
398 462 -464 0
397 432 -467 0
-397 -432 -467 0
-397 432 467 0
397 -432 467 0
467 464 -445 0
-467 -464 -445 0
-467 464 445 0
467 -464 445 0
-397 -432 466 0
-432 -464 466 0
-397 -464 466 0
397 432 -466 0
432 464 -466 0
397 464 -466 0
396 431 -469 0
-396 -431 -469 0
-396 431 469 0
396 -431 469 0
469 466 -444 0
-469 -466 -444 0
-469 466 444 0
469 -466 444 0
-396 -431 468 0
-431 -466 468 0
-396 -466 468 0
396 431 -468 0
431 466 -468 0
396 466 -468 0
395 430 -471 0
-395 -430 -471 0
-395 430 471 0
395 -430 471 0
471 468 -443 0
-471 -468 -443 0
-471 468 443 0
471 -468 443 0
-395 -430 470 0
-430 -468 470 0
-395 -468 470 0
395 430 -470 0
430 468 -470 0
395 468 -470 0
394 429 -473 0
-394 -429 -473 0
-394 429 473 0
394 -429 473 0
473 470 -442 0
-473 -470 -442 0
-473 470 442 0
473 -470 442 0
-394 -429 472 0
-429 -470 472 0
-394 -470 472 0
394 429 -472 0
429 470 -472 0
394 470 -472 0
393 428 -474 0
-393 -428 -474 0
-393 428 474 0
393 -428 474 0
474 472 -441 0
-474 -472 -441 0
-474 472 441 0
474 -472 441 0
-393 -428 440 0
-428 -472 440 0
-393 -472 440 0
393 428 -440 0
428 472 -440 0
393 472 -440 0
222 -475 0
217 -475 0
-222 -217 475 0
222 -476 0
218 -476 0
-222 -218 476 0
222 -477 0
219 -477 0
-222 -219 477 0
222 -478 0
220 -478 0
-222 -220 478 0
222 -479 0
221 -479 0
-222 -221 479 0
222 -480 0
222 -480 0
-222 -222 480 0
222 -481 0
223 -481 0
-222 -223 481 0
222 -482 0
224 -482 0
-222 -224 482 0
222 -483 0
225 -483 0
-222 -225 483 0
222 -484 0
226 -484 0
-222 -226 484 0
222 -485 0
227 -485 0
-222 -227 485 0
222 -486 0
228 -486 0
-222 -228 486 0
451 486 -499 0
-451 -486 -499 0
-451 486 499 0
451 -486 499 0
451 -500 0
486 -500 0
-451 -486 500 0
450 485 -502 0
-450 -485 -502 0
-450 485 502 0
450 -485 502 0
502 500 -498 0
-502 -500 -498 0
-502 500 498 0
502 -500 498 0
-450 -485 501 0
-485 -500 501 0
-450 -500 501 0
450 485 -501 0
485 500 -501 0
450 500 -501 0
449 484 -504 0
-449 -484 -504 0
-449 484 504 0
449 -484 504 0
504 501 -497 0
-504 -501 -497 0
-504 501 497 0
504 -501 497 0
-449 -484 503 0
-484 -501 503 0
-449 -501 503 0
449 484 -503 0
484 501 -503 0
449 501 -503 0
448 483 -506 0
-448 -483 -506 0
-448 483 506 0
448 -483 506 0
506 503 -496 0
-506 -503 -496 0
-506 503 496 0
506 -503 496 0
-448 -483 505 0
-483 -503 505 0
-448 -503 505 0
448 483 -505 0
483 503 -505 0
448 503 -505 0
447 482 -508 0
-447 -482 -508 0
-447 482 508 0
447 -482 508 0
508 505 -495 0
-508 -505 -495 0
-508 505 495 0
508 -505 495 0
-447 -482 507 0
-482 -505 507 0
-447 -505 507 0
447 482 -507 0
482 505 -507 0
447 505 -507 0
446 481 -510 0
-446 -481 -510 0
-446 481 510 0
446 -481 510 0
510 507 -494 0
-510 -507 -494 0
-510 507 494 0
510 -507 494 0
-446 -481 509 0
-481 -507 509 0
-446 -507 509 0
446 481 -509 0
481 507 -509 0
446 507 -509 0
445 480 -512 0
-445 -480 -512 0
-445 480 512 0
445 -480 512 0
512 509 -493 0
-512 -509 -493 0
-512 509 493 0
512 -509 493 0
-445 -480 511 0
-480 -509 511 0
-445 -509 511 0
445 480 -511 0
480 509 -511 0
445 509 -511 0
444 479 -514 0
-444 -479 -514 0
-444 479 514 0
444 -479 514 0
514 511 -492 0
-514 -511 -492 0
-514 511 492 0
514 -511 492 0
-444 -479 513 0
-479 -511 513 0
-444 -511 513 0
444 479 -513 0
479 511 -513 0
444 511 -513 0
443 478 -516 0
-443 -478 -516 0
-443 478 516 0
443 -478 516 0
516 513 -491 0
-516 -513 -491 0
-516 513 491 0
516 -513 491 0
-443 -478 515 0
-478 -513 515 0
-443 -513 515 0
443 478 -515 0
478 513 -515 0
443 513 -515 0
442 477 -518 0
-442 -477 -518 0
-442 477 518 0
442 -477 518 0
518 515 -490 0
-518 -515 -490 0
-518 515 490 0
518 -515 490 0
-442 -477 517 0
-477 -515 517 0
-442 -515 517 0
442 477 -517 0
477 515 -517 0
442 515 -517 0
441 476 -520 0
-441 -476 -520 0
-441 476 520 0
441 -476 520 0
520 517 -489 0
-520 -517 -489 0
-520 517 489 0
520 -517 489 0
-441 -476 519 0
-476 -517 519 0
-441 -517 519 0
441 476 -519 0
476 517 -519 0
441 517 -519 0
440 475 -521 0
-440 -475 -521 0
-440 475 521 0
440 -475 521 0
521 519 -488 0
-521 -519 -488 0
-521 519 488 0
521 -519 488 0
-440 -475 487 0
-475 -519 487 0
-440 -519 487 0
440 475 -487 0
475 519 -487 0
440 519 -487 0
221 -522 0
217 -522 0
-221 -217 522 0
221 -523 0
218 -523 0
-221 -218 523 0
221 -524 0
219 -524 0
-221 -219 524 0
221 -525 0
220 -525 0
-221 -220 525 0
221 -526 0
221 -526 0
-221 -221 526 0
221 -527 0
222 -527 0
-221 -222 527 0
221 -528 0
223 -528 0
-221 -223 528 0
221 -529 0
224 -529 0
-221 -224 529 0
221 -530 0
225 -530 0
-221 -225 530 0
221 -531 0
226 -531 0
-221 -226 531 0
221 -532 0
227 -532 0
-221 -227 532 0
221 -533 0
228 -533 0
-221 -228 533 0
498 533 -546 0
-498 -533 -546 0
-498 533 546 0
498 -533 546 0
498 -547 0
533 -547 0
-498 -533 547 0
497 532 -549 0
-497 -532 -549 0
-497 532 549 0
497 -532 549 0
549 547 -545 0
-549 -547 -545 0
-549 547 545 0
549 -547 545 0
-497 -532 548 0
-532 -547 548 0
-497 -547 548 0
497 532 -548 0
532 547 -548 0
497 547 -548 0
496 531 -551 0
-496 -531 -551 0
-496 531 551 0
496 -531 551 0
551 548 -544 0
-551 -548 -544 0
-551 548 544 0
551 -548 544 0
-496 -531 550 0
-531 -548 550 0
-496 -548 550 0
496 531 -550 0
531 548 -550 0
496 548 -550 0
495 530 -553 0
-495 -530 -553 0
-495 530 553 0
495 -530 553 0
553 550 -543 0
-553 -550 -543 0
-553 550 543 0
553 -550 543 0
-495 -530 552 0
-530 -550 552 0
-495 -550 552 0
495 530 -552 0
530 550 -552 0
495 550 -552 0
494 529 -555 0
-494 -529 -555 0
-494 529 555 0
494 -529 555 0
555 552 -542 0
-555 -552 -542 0
-555 552 542 0
555 -552 542 0
-494 -529 554 0
-529 -552 554 0
-494 -552 554 0
494 529 -554 0
529 552 -554 0
494 552 -554 0
493 528 -557 0
-493 -528 -557 0
-493 528 557 0
493 -528 557 0
557 554 -541 0
-557 -554 -541 0
-557 554 541 0
557 -554 541 0
-493 -528 556 0
-528 -554 556 0
-493 -554 556 0
493 528 -556 0
528 554 -556 0
493 554 -556 0
492 527 -559 0
-492 -527 -559 0
-492 527 559 0
492 -527 559 0
559 556 -540 0
-559 -556 -540 0
-559 556 540 0
559 -556 540 0
-492 -527 558 0
-527 -556 558 0
-492 -556 558 0
492 527 -558 0
527 556 -558 0
492 556 -558 0
491 526 -561 0
-491 -526 -561 0
-491 526 561 0
491 -526 561 0
561 558 -539 0
-561 -558 -539 0
-561 558 539 0
561 -558 539 0
-491 -526 560 0
-526 -558 560 0
-491 -558 560 0
491 526 -560 0
526 558 -560 0
491 558 -560 0
490 525 -563 0
-490 -525 -563 0
-490 525 563 0
490 -525 563 0
563 560 -538 0
-563 -560 -538 0
-563 560 538 0
563 -560 538 0
-490 -525 562 0
-525 -560 562 0
-490 -560 562 0
490 525 -562 0
525 560 -562 0
490 560 -562 0
489 524 -565 0
-489 -524 -565 0
-489 524 565 0
489 -524 565 0
565 562 -537 0
-565 -562 -537 0
-565 562 537 0
565 -562 537 0
-489 -524 564 0
-524 -562 564 0
-489 -562 564 0
489 524 -564 0
524 562 -564 0
489 562 -564 0
488 523 -567 0
-488 -523 -567 0
-488 523 567 0
488 -523 567 0
567 564 -536 0
-567 -564 -536 0
-567 564 536 0
567 -564 536 0
-488 -523 566 0
-523 -564 566 0
-488 -564 566 0
488 523 -566 0
523 564 -566 0
488 564 -566 0
487 522 -568 0
-487 -522 -568 0
-487 522 568 0
487 -522 568 0
568 566 -535 0
-568 -566 -535 0
-568 566 535 0
568 -566 535 0
-487 -522 534 0
-522 -566 534 0
-487 -566 534 0
487 522 -534 0
522 566 -534 0
487 566 -534 0
220 -569 0
217 -569 0
-220 -217 569 0
220 -570 0
218 -570 0
-220 -218 570 0
220 -571 0
219 -571 0
-220 -219 571 0
220 -572 0
220 -572 0
-220 -220 572 0
220 -573 0
221 -573 0
-220 -221 573 0
220 -574 0
222 -574 0
-220 -222 574 0
220 -575 0
223 -575 0
-220 -223 575 0
220 -576 0
224 -576 0
-220 -224 576 0
220 -577 0
225 -577 0
-220 -225 577 0
220 -578 0
226 -578 0
-220 -226 578 0
220 -579 0
227 -579 0
-220 -227 579 0
220 -580 0
228 -580 0
-220 -228 580 0
545 580 -593 0
-545 -580 -593 0
-545 580 593 0
545 -580 593 0
545 -594 0
580 -594 0
-545 -580 594 0
544 579 -596 0
-544 -579 -596 0
-544 579 596 0
544 -579 596 0
596 594 -592 0
-596 -594 -592 0
-596 594 592 0
596 -594 592 0
-544 -579 595 0
-579 -594 595 0
-544 -594 595 0
544 579 -595 0
579 594 -595 0
544 594 -595 0
543 578 -598 0
-543 -578 -598 0
-543 578 598 0
543 -578 598 0
598 595 -591 0
-598 -595 -591 0
-598 595 591 0
598 -595 591 0
-543 -578 597 0
-578 -595 597 0
-543 -595 597 0
543 578 -597 0
578 595 -597 0
543 595 -597 0
542 577 -600 0
-542 -577 -600 0
-542 577 600 0
542 -577 600 0
600 597 -590 0
-600 -597 -590 0
-600 597 590 0
600 -597 590 0
-542 -577 599 0
-577 -597 599 0
-542 -597 599 0
542 577 -599 0
577 597 -599 0
542 597 -599 0
541 576 -602 0
-541 -576 -602 0
-541 576 602 0
541 -576 602 0
602 599 -589 0
-602 -599 -589 0
-602 599 589 0
602 -599 589 0
-541 -576 601 0
-576 -599 601 0
-541 -599 601 0
541 576 -601 0
576 599 -601 0
541 599 -601 0
540 575 -604 0
-540 -575 -604 0
-540 575 604 0
540 -575 604 0
604 601 -588 0
-604 -601 -588 0
-604 601 588 0
604 -601 588 0
-540 -575 603 0
-575 -601 603 0
-540 -601 603 0
540 575 -603 0
575 601 -603 0
540 601 -603 0
539 574 -606 0
-539 -574 -606 0
-539 574 606 0
539 -574 606 0
606 603 -587 0
-606 -603 -587 0
-606 603 587 0
606 -603 587 0
-539 -574 605 0
-574 -603 605 0
-539 -603 605 0
539 574 -605 0
574 603 -605 0
539 603 -605 0
538 573 -608 0
-538 -573 -608 0
-538 573 608 0
538 -573 608 0
608 605 -586 0
-608 -605 -586 0
-608 605 586 0
608 -605 586 0
-538 -573 607 0
-573 -605 607 0
-538 -605 607 0
538 573 -607 0
573 605 -607 0
538 605 -607 0
537 572 -610 0
-537 -572 -610 0
-537 572 610 0
537 -572 610 0
610 607 -585 0
-610 -607 -585 0
-610 607 585 0
610 -607 585 0
-537 -572 609 0
-572 -607 609 0
-537 -607 609 0
537 572 -609 0
572 607 -609 0
537 607 -609 0
536 571 -612 0
-536 -571 -612 0
-536 571 612 0
536 -571 612 0
612 609 -584 0
-612 -609 -584 0
-612 609 584 0
612 -609 584 0
-536 -571 611 0
-571 -609 611 0
-536 -609 611 0
536 571 -611 0
571 609 -611 0
536 609 -611 0
535 570 -614 0
-535 -570 -614 0
-535 570 614 0
535 -570 614 0
614 611 -583 0
-614 -611 -583 0
-614 611 583 0
614 -611 583 0
-535 -570 613 0
-570 -611 613 0
-535 -611 613 0
535 570 -613 0
570 611 -613 0
535 611 -613 0
534 569 -615 0
-534 -569 -615 0
-534 569 615 0
534 -569 615 0
615 613 -582 0
-615 -613 -582 0
-615 613 582 0
615 -613 582 0
-534 -569 581 0
-569 -613 581 0
-534 -613 581 0
534 569 -581 0
569 613 -581 0
534 613 -581 0
219 -616 0
217 -616 0
-219 -217 616 0
219 -617 0
218 -617 0
-219 -218 617 0
219 -618 0
219 -618 0
-219 -219 618 0
219 -619 0
220 -619 0
-219 -220 619 0
219 -620 0
221 -620 0
-219 -221 620 0
219 -621 0
222 -621 0
-219 -222 621 0
219 -622 0
223 -622 0
-219 -223 622 0
219 -623 0
224 -623 0
-219 -224 623 0
219 -624 0
225 -624 0
-219 -225 624 0
219 -625 0
226 -625 0
-219 -226 625 0
219 -626 0
227 -626 0
-219 -227 626 0
219 -627 0
228 -627 0
-219 -228 627 0
592 627 -640 0
-592 -627 -640 0
-592 627 640 0
592 -627 640 0
592 -641 0
627 -641 0
-592 -627 641 0
591 626 -643 0
-591 -626 -643 0
-591 626 643 0
591 -626 643 0
643 641 -639 0
-643 -641 -639 0
-643 641 639 0
643 -641 639 0
-591 -626 642 0
-626 -641 642 0
-591 -641 642 0
591 626 -642 0
626 641 -642 0
591 641 -642 0
590 625 -645 0
-590 -625 -645 0
-590 625 645 0
590 -625 645 0
645 642 -638 0
-645 -642 -638 0
-645 642 638 0
645 -642 638 0
-590 -625 644 0
-625 -642 644 0
-590 -642 644 0
590 625 -644 0
625 642 -644 0
590 642 -644 0
589 624 -647 0
-589 -624 -647 0
-589 624 647 0
589 -624 647 0
647 644 -637 0
-647 -644 -637 0
-647 644 637 0
647 -644 637 0
-589 -624 646 0
-624 -644 646 0
-589 -644 646 0
589 624 -646 0
624 644 -646 0
589 644 -646 0
588 623 -649 0
-588 -623 -649 0
-588 623 649 0
588 -623 649 0
649 646 -636 0
-649 -646 -636 0
-649 646 636 0
649 -646 636 0
-588 -623 648 0
-623 -646 648 0
-588 -646 648 0
588 623 -648 0
623 646 -648 0
588 646 -648 0
587 622 -651 0
-587 -622 -651 0
-587 622 651 0
587 -622 651 0
651 648 -635 0
-651 -648 -635 0
-651 648 635 0
651 -648 635 0
-587 -622 650 0
-622 -648 650 0
-587 -648 650 0
587 622 -650 0
622 648 -650 0
587 648 -650 0
586 621 -653 0
-586 -621 -653 0
-586 621 653 0
586 -621 653 0
653 650 -634 0
-653 -650 -634 0
-653 650 634 0
653 -650 634 0
-586 -621 652 0
-621 -650 652 0
-586 -650 652 0
586 621 -652 0
621 650 -652 0
586 650 -652 0
585 620 -655 0
-585 -620 -655 0
-585 620 655 0
585 -620 655 0
655 652 -633 0
-655 -652 -633 0
-655 652 633 0
655 -652 633 0
-585 -620 654 0
-620 -652 654 0
-585 -652 654 0
585 620 -654 0
620 652 -654 0
585 652 -654 0
584 619 -657 0
-584 -619 -657 0
-584 619 657 0
584 -619 657 0
657 654 -632 0
-657 -654 -632 0
-657 654 632 0
657 -654 632 0
-584 -619 656 0
-619 -654 656 0
-584 -654 656 0
584 619 -656 0
619 654 -656 0
584 654 -656 0
583 618 -659 0
-583 -618 -659 0
-583 618 659 0
583 -618 659 0
659 656 -631 0
-659 -656 -631 0
-659 656 631 0
659 -656 631 0
-583 -618 658 0
-618 -656 658 0
-583 -656 658 0
583 618 -658 0
618 656 -658 0
583 656 -658 0
582 617 -661 0
-582 -617 -661 0
-582 617 661 0
582 -617 661 0
661 658 -630 0
-661 -658 -630 0
-661 658 630 0
661 -658 630 0
-582 -617 660 0
-617 -658 660 0
-582 -658 660 0
582 617 -660 0
617 658 -660 0
582 658 -660 0
581 616 -662 0
-581 -616 -662 0
-581 616 662 0
581 -616 662 0
662 660 -629 0
-662 -660 -629 0
-662 660 629 0
662 -660 629 0
-581 -616 628 0
-616 -660 628 0
-581 -660 628 0
581 616 -628 0
616 660 -628 0
581 660 -628 0
218 -663 0
217 -663 0
-218 -217 663 0
218 -664 0
218 -664 0
-218 -218 664 0
218 -665 0
219 -665 0
-218 -219 665 0
218 -666 0
220 -666 0
-218 -220 666 0
218 -667 0
221 -667 0
-218 -221 667 0
218 -668 0
222 -668 0
-218 -222 668 0
218 -669 0
223 -669 0
-218 -223 669 0
218 -670 0
224 -670 0
-218 -224 670 0
218 -671 0
225 -671 0
-218 -225 671 0
218 -672 0
226 -672 0
-218 -226 672 0
218 -673 0
227 -673 0
-218 -227 673 0
218 -674 0
228 -674 0
-218 -228 674 0
639 674 -687 0
-639 -674 -687 0
-639 674 687 0
639 -674 687 0
639 -688 0
674 -688 0
-639 -674 688 0
638 673 -690 0
-638 -673 -690 0
-638 673 690 0
638 -673 690 0
690 688 -686 0
-690 -688 -686 0
-690 688 686 0
690 -688 686 0
-638 -673 689 0
-673 -688 689 0
-638 -688 689 0
638 673 -689 0
673 688 -689 0
638 688 -689 0
637 672 -692 0
-637 -672 -692 0
-637 672 692 0
637 -672 692 0
692 689 -685 0
-692 -689 -685 0
-692 689 685 0
692 -689 685 0
-637 -672 691 0
-672 -689 691 0
-637 -689 691 0
637 672 -691 0
672 689 -691 0
637 689 -691 0
636 671 -694 0
-636 -671 -694 0
-636 671 694 0
636 -671 694 0
694 691 -684 0
-694 -691 -684 0
-694 691 684 0
694 -691 684 0
-636 -671 693 0
-671 -691 693 0
-636 -691 693 0
636 671 -693 0
671 691 -693 0
636 691 -693 0
635 670 -696 0
-635 -670 -696 0
-635 670 696 0
635 -670 696 0
696 693 -683 0
-696 -693 -683 0
-696 693 683 0
696 -693 683 0
-635 -670 695 0
-670 -693 695 0
-635 -693 695 0
635 670 -695 0
670 693 -695 0
635 693 -695 0
634 669 -698 0
-634 -669 -698 0
-634 669 698 0
634 -669 698 0
698 695 -682 0
-698 -695 -682 0
-698 695 682 0
698 -695 682 0
-634 -669 697 0
-669 -695 697 0
-634 -695 697 0
634 669 -697 0
669 695 -697 0
634 695 -697 0
633 668 -700 0
-633 -668 -700 0
-633 668 700 0
633 -668 700 0
700 697 -681 0
-700 -697 -681 0
-700 697 681 0
700 -697 681 0
-633 -668 699 0
-668 -697 699 0
-633 -697 699 0
633 668 -699 0
668 697 -699 0
633 697 -699 0
632 667 -702 0
-632 -667 -702 0
-632 667 702 0
632 -667 702 0
702 699 -680 0
-702 -699 -680 0
-702 699 680 0
702 -699 680 0
-632 -667 701 0
-667 -699 701 0
-632 -699 701 0
632 667 -701 0
667 699 -701 0
632 699 -701 0
631 666 -704 0
-631 -666 -704 0
-631 666 704 0
631 -666 704 0
704 701 -679 0
-704 -701 -679 0
-704 701 679 0
704 -701 679 0
-631 -666 703 0
-666 -701 703 0
-631 -701 703 0
631 666 -703 0
666 701 -703 0
631 701 -703 0
630 665 -706 0
-630 -665 -706 0
-630 665 706 0
630 -665 706 0
706 703 -678 0
-706 -703 -678 0
-706 703 678 0
706 -703 678 0
-630 -665 705 0
-665 -703 705 0
-630 -703 705 0
630 665 -705 0
665 703 -705 0
630 703 -705 0
629 664 -708 0
-629 -664 -708 0
-629 664 708 0
629 -664 708 0
708 705 -677 0
-708 -705 -677 0
-708 705 677 0
708 -705 677 0
-629 -664 707 0
-664 -705 707 0
-629 -705 707 0
629 664 -707 0
664 705 -707 0
629 705 -707 0
628 663 -709 0
-628 -663 -709 0
-628 663 709 0
628 -663 709 0
709 707 -676 0
-709 -707 -676 0
-709 707 676 0
709 -707 676 0
-628 -663 675 0
-663 -707 675 0
-628 -707 675 0
628 663 -675 0
663 707 -675 0
628 707 -675 0
217 -710 0
217 -710 0
-217 -217 710 0
217 -711 0
218 -711 0
-217 -218 711 0
217 -712 0
219 -712 0
-217 -219 712 0
217 -713 0
220 -713 0
-217 -220 713 0
217 -714 0
221 -714 0
-217 -221 714 0
217 -715 0
222 -715 0
-217 -222 715 0
217 -716 0
223 -716 0
-217 -223 716 0
217 -717 0
224 -717 0
-217 -224 717 0
217 -718 0
225 -718 0
-217 -225 718 0
217 -719 0
226 -719 0
-217 -226 719 0
217 -720 0
227 -720 0
-217 -227 720 0
217 -721 0
228 -721 0
-217 -228 721 0
686 721 -734 0
-686 -721 -734 0
-686 721 734 0
686 -721 734 0
686 -735 0
721 -735 0
-686 -721 735 0
685 720 -737 0
-685 -720 -737 0
-685 720 737 0
685 -720 737 0
737 735 -733 0
-737 -735 -733 0
-737 735 733 0
737 -735 733 0
-685 -720 736 0
-720 -735 736 0
-685 -735 736 0
685 720 -736 0
720 735 -736 0
685 735 -736 0
684 719 -739 0
-684 -719 -739 0
-684 719 739 0
684 -719 739 0
739 736 -732 0
-739 -736 -732 0
-739 736 732 0
739 -736 732 0
-684 -719 738 0
-719 -736 738 0
-684 -736 738 0
684 719 -738 0
719 736 -738 0
684 736 -738 0
683 718 -741 0
-683 -718 -741 0
-683 718 741 0
683 -718 741 0
741 738 -731 0
-741 -738 -731 0
-741 738 731 0
741 -738 731 0
-683 -718 740 0
-718 -738 740 0
-683 -738 740 0
683 718 -740 0
718 738 -740 0
683 738 -740 0
682 717 -743 0
-682 -717 -743 0
-682 717 743 0
682 -717 743 0
743 740 -730 0
-743 -740 -730 0
-743 740 730 0
743 -740 730 0
-682 -717 742 0
-717 -740 742 0
-682 -740 742 0
682 717 -742 0
717 740 -742 0
682 740 -742 0
681 716 -745 0
-681 -716 -745 0
-681 716 745 0
681 -716 745 0
745 742 -729 0
-745 -742 -729 0
-745 742 729 0
745 -742 729 0
-681 -716 744 0
-716 -742 744 0
-681 -742 744 0
681 716 -744 0
716 742 -744 0
681 742 -744 0
680 715 -747 0
-680 -715 -747 0
-680 715 747 0
680 -715 747 0
747 744 -728 0
-747 -744 -728 0
-747 744 728 0
747 -744 728 0
-680 -715 746 0
-715 -744 746 0
-680 -744 746 0
680 715 -746 0
715 744 -746 0
680 744 -746 0
679 714 -749 0
-679 -714 -749 0
-679 714 749 0
679 -714 749 0
749 746 -727 0
-749 -746 -727 0
-749 746 727 0
749 -746 727 0
-679 -714 748 0
-714 -746 748 0
-679 -746 748 0
679 714 -748 0
714 746 -748 0
679 746 -748 0
678 713 -751 0
-678 -713 -751 0
-678 713 751 0
678 -713 751 0
751 748 -726 0
-751 -748 -726 0
-751 748 726 0
751 -748 726 0
-678 -713 750 0
-713 -748 750 0
-678 -748 750 0
678 713 -750 0
713 748 -750 0
678 748 -750 0
677 712 -753 0
-677 -712 -753 0
-677 712 753 0
677 -712 753 0
753 750 -725 0
-753 -750 -725 0
-753 750 725 0
753 -750 725 0
-677 -712 752 0
-712 -750 752 0
-677 -750 752 0
677 712 -752 0
712 750 -752 0
677 750 -752 0
676 711 -755 0
-676 -711 -755 0
-676 711 755 0
676 -711 755 0
755 752 -724 0
-755 -752 -724 0
-755 752 724 0
755 -752 724 0
-676 -711 754 0
-711 -752 754 0
-676 -752 754 0
676 711 -754 0
711 752 -754 0
676 752 -754 0
675 710 -756 0
-675 -710 -756 0
-675 710 756 0
675 -710 756 0
756 754 -723 0
-756 -754 -723 0
-756 754 723 0
756 -754 723 0
-675 -710 722 0
-710 -754 722 0
-675 -754 722 0
675 710 -722 0
710 754 -722 0
675 754 -722 0
722 -1 0
-722 1 0
723 -2 0
-723 2 0
724 -3 0
-724 3 0
725 -4 0
-725 4 0
726 -5 0
-726 5 0
727 -6 0
-727 6 0
728 -7 0
-728 7 0
729 -8 0
-729 8 0
730 -9 0
-730 9 0
731 -10 0
-731 10 0
732 -11 0
-732 11 0
733 -12 0
-733 12 0
734 -13 0
-734 13 0
687 -14 0
-687 14 0
640 -15 0
-640 15 0
593 -16 0
-593 16 0
546 -17 0
-546 17 0
499 -18 0
-499 18 0
452 -19 0
-452 19 0
405 -20 0
-405 20 0
358 -21 0
-358 21 0
311 -22 0
-311 22 0
265 -23 0
-265 23 0
240 -24 0
-240 24 0
25 26 27 28 29 30 31 32 33 34 35 36 37 38 39 40 41 42 43 44 45 46 47 48 0
768 -769 0
757 -769 0
-768 -757 769 0
768 -770 0
758 -770 0
-768 -758 770 0
768 -771 0
759 -771 0
-768 -759 771 0
768 -772 0
760 -772 0
-768 -760 772 0
768 -773 0
761 -773 0
-768 -761 773 0
768 -774 0
762 -774 0
-768 -762 774 0
768 -775 0
763 -775 0
-768 -763 775 0
768 -776 0
764 -776 0
-768 -764 776 0
768 -777 0
765 -777 0
-768 -765 777 0
768 -778 0
766 -778 0
-768 -766 778 0
768 -779 0
767 -779 0
-768 -767 779 0
768 -780 0
768 -780 0
-768 -768 780 0
767 -781 0
757 -781 0
-767 -757 781 0
767 -782 0
758 -782 0
-767 -758 782 0
767 -783 0
759 -783 0
-767 -759 783 0
767 -784 0
760 -784 0
-767 -760 784 0
767 -785 0
761 -785 0
-767 -761 785 0
767 -786 0
762 -786 0
-767 -762 786 0
767 -787 0
763 -787 0
-767 -763 787 0
767 -788 0
764 -788 0
-767 -764 788 0
767 -789 0
765 -789 0
-767 -765 789 0
767 -790 0
766 -790 0
-767 -766 790 0
767 -791 0
767 -791 0
-767 -767 791 0
767 -792 0
768 -792 0
-767 -768 792 0
779 792 -805 0
-779 -792 -805 0
-779 792 805 0
779 -792 805 0
779 -806 0
792 -806 0
-779 -792 806 0
778 791 -808 0
-778 -791 -808 0
-778 791 808 0
778 -791 808 0
808 806 -804 0
-808 -806 -804 0
-808 806 804 0
808 -806 804 0
-778 -791 807 0
-791 -806 807 0
-778 -806 807 0
778 791 -807 0
791 806 -807 0
778 806 -807 0
777 790 -810 0
-777 -790 -810 0
-777 790 810 0
777 -790 810 0
810 807 -803 0
-810 -807 -803 0
-810 807 803 0
810 -807 803 0
-777 -790 809 0
-790 -807 809 0
-777 -807 809 0
777 790 -809 0
790 807 -809 0
777 807 -809 0
776 789 -812 0
-776 -789 -812 0
-776 789 812 0
776 -789 812 0
812 809 -802 0
-812 -809 -802 0
-812 809 802 0
812 -809 802 0
-776 -789 811 0
-789 -809 811 0
-776 -809 811 0
776 789 -811 0
789 809 -811 0
776 809 -811 0
775 788 -814 0
-775 -788 -814 0
-775 788 814 0
775 -788 814 0
814 811 -801 0
-814 -811 -801 0
-814 811 801 0
814 -811 801 0
-775 -788 813 0
-788 -811 813 0
-775 -811 813 0
775 788 -813 0
788 811 -813 0
775 811 -813 0
774 787 -816 0
-774 -787 -816 0
-774 787 816 0
774 -787 816 0
816 813 -800 0
-816 -813 -800 0
-816 813 800 0
816 -813 800 0
-774 -787 815 0
-787 -813 815 0
-774 -813 815 0
774 787 -815 0
787 813 -815 0
774 813 -815 0
773 786 -818 0
-773 -786 -818 0
-773 786 818 0
773 -786 818 0
818 815 -799 0
-818 -815 -799 0
-818 815 799 0
818 -815 799 0
-773 -786 817 0
-786 -815 817 0
-773 -815 817 0
773 786 -817 0
786 815 -817 0
773 815 -817 0
772 785 -820 0
-772 -785 -820 0
-772 785 820 0
772 -785 820 0
820 817 -798 0
-820 -817 -798 0
-820 817 798 0
820 -817 798 0
-772 -785 819 0
-785 -817 819 0
-772 -817 819 0
772 785 -819 0
785 817 -819 0
772 817 -819 0
771 784 -822 0
-771 -784 -822 0
-771 784 822 0
771 -784 822 0
822 819 -797 0
-822 -819 -797 0
-822 819 797 0
822 -819 797 0
-771 -784 821 0
-784 -819 821 0
-771 -819 821 0
771 784 -821 0
784 819 -821 0
771 819 -821 0
770 783 -824 0
-770 -783 -824 0
-770 783 824 0
770 -783 824 0
824 821 -796 0
-824 -821 -796 0
-824 821 796 0
824 -821 796 0
-770 -783 823 0
-783 -821 823 0
-770 -821 823 0
770 783 -823 0
783 821 -823 0
770 821 -823 0
769 782 -826 0
-769 -782 -826 0
-769 782 826 0
769 -782 826 0
826 823 -795 0
-826 -823 -795 0
-826 823 795 0
826 -823 795 0
-769 -782 825 0
-782 -823 825 0
-769 -823 825 0
769 782 -825 0
782 823 -825 0
769 823 -825 0
781 825 -794 0
-781 -825 -794 0
-781 825 794 0
781 -825 794 0
781 -793 0
825 -793 0
-781 -825 793 0
766 -827 0
757 -827 0
-766 -757 827 0
766 -828 0
758 -828 0
-766 -758 828 0
766 -829 0
759 -829 0
-766 -759 829 0
766 -830 0
760 -830 0
-766 -760 830 0
766 -831 0
761 -831 0
-766 -761 831 0
766 -832 0
762 -832 0
-766 -762 832 0
766 -833 0
763 -833 0
-766 -763 833 0
766 -834 0
764 -834 0
-766 -764 834 0
766 -835 0
765 -835 0
-766 -765 835 0
766 -836 0
766 -836 0
-766 -766 836 0
766 -837 0
767 -837 0
-766 -767 837 0
766 -838 0
768 -838 0
-766 -768 838 0
804 838 -851 0
-804 -838 -851 0
-804 838 851 0
804 -838 851 0
804 -852 0
838 -852 0
-804 -838 852 0
803 837 -854 0
-803 -837 -854 0
-803 837 854 0
803 -837 854 0
854 852 -850 0
-854 -852 -850 0
-854 852 850 0
854 -852 850 0
-803 -837 853 0
-837 -852 853 0
-803 -852 853 0
803 837 -853 0
837 852 -853 0
803 852 -853 0
802 836 -856 0
-802 -836 -856 0
-802 836 856 0
802 -836 856 0
856 853 -849 0
-856 -853 -849 0
-856 853 849 0
856 -853 849 0
-802 -836 855 0
-836 -853 855 0
-802 -853 855 0
802 836 -855 0
836 853 -855 0
802 853 -855 0
801 835 -858 0
-801 -835 -858 0
-801 835 858 0
801 -835 858 0
858 855 -848 0
-858 -855 -848 0
-858 855 848 0
858 -855 848 0
-801 -835 857 0
-835 -855 857 0
-801 -855 857 0
801 835 -857 0
835 855 -857 0
801 855 -857 0
800 834 -860 0
-800 -834 -860 0
-800 834 860 0
800 -834 860 0
860 857 -847 0
-860 -857 -847 0
-860 857 847 0
860 -857 847 0
-800 -834 859 0
-834 -857 859 0
-800 -857 859 0
800 834 -859 0
834 857 -859 0
800 857 -859 0
799 833 -862 0
-799 -833 -862 0
-799 833 862 0
799 -833 862 0
862 859 -846 0
-862 -859 -846 0
-862 859 846 0
862 -859 846 0
-799 -833 861 0
-833 -859 861 0
-799 -859 861 0
799 833 -861 0
833 859 -861 0
799 859 -861 0
798 832 -864 0
-798 -832 -864 0
-798 832 864 0
798 -832 864 0
864 861 -845 0
-864 -861 -845 0
-864 861 845 0
864 -861 845 0
-798 -832 863 0
-832 -861 863 0
-798 -861 863 0
798 832 -863 0
832 861 -863 0
798 861 -863 0
797 831 -866 0
-797 -831 -866 0
-797 831 866 0
797 -831 866 0
866 863 -844 0
-866 -863 -844 0
-866 863 844 0
866 -863 844 0
-797 -831 865 0
-831 -863 865 0
-797 -863 865 0
797 831 -865 0
831 863 -865 0
797 863 -865 0
796 830 -868 0
-796 -830 -868 0
-796 830 868 0
796 -830 868 0
868 865 -843 0
-868 -865 -843 0
-868 865 843 0
868 -865 843 0
-796 -830 867 0
-830 -865 867 0
-796 -865 867 0
796 830 -867 0
830 865 -867 0
796 865 -867 0
795 829 -870 0
-795 -829 -870 0
-795 829 870 0
795 -829 870 0
870 867 -842 0
-870 -867 -842 0
-870 867 842 0
870 -867 842 0
-795 -829 869 0
-829 -867 869 0
-795 -867 869 0
795 829 -869 0
829 867 -869 0
795 867 -869 0
794 828 -872 0
-794 -828 -872 0
-794 828 872 0
794 -828 872 0
872 869 -841 0
-872 -869 -841 0
-872 869 841 0
872 -869 841 0
-794 -828 871 0
-828 -869 871 0
-794 -869 871 0
794 828 -871 0
828 869 -871 0
794 869 -871 0
793 827 -873 0
-793 -827 -873 0
-793 827 873 0
793 -827 873 0
873 871 -840 0
-873 -871 -840 0
-873 871 840 0
873 -871 840 0
-793 -827 839 0
-827 -871 839 0
-793 -871 839 0
793 827 -839 0
827 871 -839 0
793 871 -839 0
765 -874 0
757 -874 0
-765 -757 874 0
765 -875 0
758 -875 0
-765 -758 875 0
765 -876 0
759 -876 0
-765 -759 876 0
765 -877 0
760 -877 0
-765 -760 877 0
765 -878 0
761 -878 0
-765 -761 878 0
765 -879 0
762 -879 0
-765 -762 879 0
765 -880 0
763 -880 0
-765 -763 880 0
765 -881 0
764 -881 0
-765 -764 881 0
765 -882 0
765 -882 0
-765 -765 882 0
765 -883 0
766 -883 0
-765 -766 883 0
765 -884 0
767 -884 0
-765 -767 884 0
765 -885 0
768 -885 0
-765 -768 885 0
850 885 -898 0
-850 -885 -898 0
-850 885 898 0
850 -885 898 0
850 -899 0
885 -899 0
-850 -885 899 0
849 884 -901 0
-849 -884 -901 0
-849 884 901 0
849 -884 901 0
901 899 -897 0
-901 -899 -897 0
-901 899 897 0
901 -899 897 0
-849 -884 900 0
-884 -899 900 0
-849 -899 900 0
849 884 -900 0
884 899 -900 0
849 899 -900 0
848 883 -903 0
-848 -883 -903 0
-848 883 903 0
848 -883 903 0
903 900 -896 0
-903 -900 -896 0
-903 900 896 0
903 -900 896 0
-848 -883 902 0
-883 -900 902 0
-848 -900 902 0
848 883 -902 0
883 900 -902 0
848 900 -902 0
847 882 -905 0
-847 -882 -905 0
-847 882 905 0
847 -882 905 0
905 902 -895 0
-905 -902 -895 0
-905 902 895 0
905 -902 895 0
-847 -882 904 0
-882 -902 904 0
-847 -902 904 0
847 882 -904 0
882 902 -904 0
847 902 -904 0
846 881 -907 0
-846 -881 -907 0
-846 881 907 0
846 -881 907 0
907 904 -894 0
-907 -904 -894 0
-907 904 894 0
907 -904 894 0
-846 -881 906 0
-881 -904 906 0
-846 -904 906 0
846 881 -906 0
881 904 -906 0
846 904 -906 0
845 880 -909 0
-845 -880 -909 0
-845 880 909 0
845 -880 909 0
909 906 -893 0
-909 -906 -893 0
-909 906 893 0
909 -906 893 0
-845 -880 908 0
-880 -906 908 0
-845 -906 908 0
845 880 -908 0
880 906 -908 0
845 906 -908 0
844 879 -911 0
-844 -879 -911 0
-844 879 911 0
844 -879 911 0
911 908 -892 0
-911 -908 -892 0
-911 908 892 0
911 -908 892 0
-844 -879 910 0
-879 -908 910 0
-844 -908 910 0
844 879 -910 0
879 908 -910 0
844 908 -910 0
843 878 -913 0
-843 -878 -913 0
-843 878 913 0
843 -878 913 0
913 910 -891 0
-913 -910 -891 0
-913 910 891 0
913 -910 891 0
-843 -878 912 0
-878 -910 912 0
-843 -910 912 0
843 878 -912 0
878 910 -912 0
843 910 -912 0
842 877 -915 0
-842 -877 -915 0
-842 877 915 0
842 -877 915 0
915 912 -890 0
-915 -912 -890 0
-915 912 890 0
915 -912 890 0
-842 -877 914 0
-877 -912 914 0
-842 -912 914 0
842 877 -914 0
877 912 -914 0
842 912 -914 0
841 876 -917 0
-841 -876 -917 0
-841 876 917 0
841 -876 917 0
917 914 -889 0
-917 -914 -889 0
-917 914 889 0
917 -914 889 0
-841 -876 916 0
-876 -914 916 0
-841 -914 916 0
841 876 -916 0
876 914 -916 0
841 914 -916 0
840 875 -919 0
-840 -875 -919 0
-840 875 919 0
840 -875 919 0
919 916 -888 0
-919 -916 -888 0
-919 916 888 0
919 -916 888 0
-840 -875 918 0
-875 -916 918 0
-840 -916 918 0
840 875 -918 0
875 916 -918 0
840 916 -918 0
839 874 -920 0
-839 -874 -920 0
-839 874 920 0
839 -874 920 0
920 918 -887 0
-920 -918 -887 0
-920 918 887 0
920 -918 887 0
-839 -874 886 0
-874 -918 886 0
-839 -918 886 0
839 874 -886 0
874 918 -886 0
839 918 -886 0
764 -921 0
757 -921 0
-764 -757 921 0
764 -922 0
758 -922 0
-764 -758 922 0
764 -923 0
759 -923 0
-764 -759 923 0
764 -924 0
760 -924 0
-764 -760 924 0
764 -925 0
761 -925 0
-764 -761 925 0
764 -926 0
762 -926 0
-764 -762 926 0
764 -927 0
763 -927 0
-764 -763 927 0
764 -928 0
764 -928 0
-764 -764 928 0
764 -929 0
765 -929 0
-764 -765 929 0
764 -930 0
766 -930 0
-764 -766 930 0
764 -931 0
767 -931 0
-764 -767 931 0
764 -932 0
768 -932 0
-764 -768 932 0
897 932 -945 0
-897 -932 -945 0
-897 932 945 0
897 -932 945 0
897 -946 0
932 -946 0
-897 -932 946 0
896 931 -948 0
-896 -931 -948 0
-896 931 948 0
896 -931 948 0
948 946 -944 0
-948 -946 -944 0
-948 946 944 0
948 -946 944 0
-896 -931 947 0
-931 -946 947 0
-896 -946 947 0
896 931 -947 0
931 946 -947 0
896 946 -947 0
895 930 -950 0
-895 -930 -950 0
-895 930 950 0
895 -930 950 0
950 947 -943 0
-950 -947 -943 0
-950 947 943 0
950 -947 943 0
-895 -930 949 0
-930 -947 949 0
-895 -947 949 0
895 930 -949 0
930 947 -949 0
895 947 -949 0
894 929 -952 0
-894 -929 -952 0
-894 929 952 0
894 -929 952 0
952 949 -942 0
-952 -949 -942 0
-952 949 942 0
952 -949 942 0
-894 -929 951 0
-929 -949 951 0
-894 -949 951 0
894 929 -951 0
929 949 -951 0
894 949 -951 0
893 928 -954 0
-893 -928 -954 0
-893 928 954 0
893 -928 954 0
954 951 -941 0
-954 -951 -941 0
-954 951 941 0
954 -951 941 0
-893 -928 953 0
-928 -951 953 0
-893 -951 953 0
893 928 -953 0
928 951 -953 0
893 951 -953 0
892 927 -956 0
-892 -927 -956 0
-892 927 956 0
892 -927 956 0
956 953 -940 0
-956 -953 -940 0
-956 953 940 0
956 -953 940 0
-892 -927 955 0
-927 -953 955 0
-892 -953 955 0
892 927 -955 0
927 953 -955 0
892 953 -955 0
891 926 -958 0
-891 -926 -958 0
-891 926 958 0
891 -926 958 0
958 955 -939 0
-958 -955 -939 0
-958 955 939 0
958 -955 939 0
-891 -926 957 0
-926 -955 957 0
-891 -955 957 0
891 926 -957 0
926 955 -957 0
891 955 -957 0
890 925 -960 0
-890 -925 -960 0
-890 925 960 0
890 -925 960 0
960 957 -938 0
-960 -957 -938 0
-960 957 938 0
960 -957 938 0
-890 -925 959 0
-925 -957 959 0
-890 -957 959 0
890 925 -959 0
925 957 -959 0
890 957 -959 0
889 924 -962 0
-889 -924 -962 0
-889 924 962 0
889 -924 962 0
962 959 -937 0
-962 -959 -937 0
-962 959 937 0
962 -959 937 0
-889 -924 961 0
-924 -959 961 0
-889 -959 961 0
889 924 -961 0
924 959 -961 0
889 959 -961 0
888 923 -964 0
-888 -923 -964 0
-888 923 964 0
888 -923 964 0
964 961 -936 0
-964 -961 -936 0
-964 961 936 0
964 -961 936 0
-888 -923 963 0
-923 -961 963 0
-888 -961 963 0
888 923 -963 0
923 961 -963 0
888 961 -963 0
887 922 -966 0
-887 -922 -966 0
-887 922 966 0
887 -922 966 0
966 963 -935 0
-966 -963 -935 0
-966 963 935 0
966 -963 935 0
-887 -922 965 0
-922 -963 965 0
-887 -963 965 0
887 922 -965 0
922 963 -965 0
887 963 -965 0
886 921 -967 0
-886 -921 -967 0
-886 921 967 0
886 -921 967 0
967 965 -934 0
-967 -965 -934 0
-967 965 934 0
967 -965 934 0
-886 -921 933 0
-921 -965 933 0
-886 -965 933 0
886 921 -933 0
921 965 -933 0
886 965 -933 0
763 -968 0
757 -968 0
-763 -757 968 0
763 -969 0
758 -969 0
-763 -758 969 0
763 -970 0
759 -970 0
-763 -759 970 0
763 -971 0
760 -971 0
-763 -760 971 0
763 -972 0
761 -972 0
-763 -761 972 0
763 -973 0
762 -973 0
-763 -762 973 0
763 -974 0
763 -974 0
-763 -763 974 0
763 -975 0
764 -975 0
-763 -764 975 0
763 -976 0
765 -976 0
-763 -765 976 0
763 -977 0
766 -977 0
-763 -766 977 0
763 -978 0
767 -978 0
-763 -767 978 0
763 -979 0
768 -979 0
-763 -768 979 0
944 979 -992 0
-944 -979 -992 0
-944 979 992 0
944 -979 992 0
944 -993 0
979 -993 0
-944 -979 993 0
943 978 -995 0
-943 -978 -995 0
-943 978 995 0
943 -978 995 0
995 993 -991 0
-995 -993 -991 0
-995 993 991 0
995 -993 991 0
-943 -978 994 0
-978 -993 994 0
-943 -993 994 0
943 978 -994 0
978 993 -994 0
943 993 -994 0
942 977 -997 0
-942 -977 -997 0
-942 977 997 0
942 -977 997 0
997 994 -990 0
-997 -994 -990 0
-997 994 990 0
997 -994 990 0
-942 -977 996 0
-977 -994 996 0
-942 -994 996 0
942 977 -996 0
977 994 -996 0
942 994 -996 0
941 976 -999 0
-941 -976 -999 0
-941 976 999 0
941 -976 999 0
999 996 -989 0
-999 -996 -989 0
-999 996 989 0
999 -996 989 0
-941 -976 998 0
-976 -996 998 0
-941 -996 998 0
941 976 -998 0
976 996 -998 0
941 996 -998 0
940 975 -1001 0
-940 -975 -1001 0
-940 975 1001 0
940 -975 1001 0
1001 998 -988 0
-1001 -998 -988 0
-1001 998 988 0
1001 -998 988 0
-940 -975 1000 0
-975 -998 1000 0
-940 -998 1000 0
940 975 -1000 0
975 998 -1000 0
940 998 -1000 0
939 974 -1003 0
-939 -974 -1003 0
-939 974 1003 0
939 -974 1003 0
1003 1000 -987 0
-1003 -1000 -987 0
-1003 1000 987 0
1003 -1000 987 0
-939 -974 1002 0
-974 -1000 1002 0
-939 -1000 1002 0
939 974 -1002 0
974 1000 -1002 0
939 1000 -1002 0
938 973 -1005 0
-938 -973 -1005 0
-938 973 1005 0
938 -973 1005 0
1005 1002 -986 0
-1005 -1002 -986 0
-1005 1002 986 0
1005 -1002 986 0
-938 -973 1004 0
-973 -1002 1004 0
-938 -1002 1004 0
938 973 -1004 0
973 1002 -1004 0
938 1002 -1004 0
937 972 -1007 0
-937 -972 -1007 0
-937 972 1007 0
937 -972 1007 0
1007 1004 -985 0
-1007 -1004 -985 0
-1007 1004 985 0
1007 -1004 985 0
-937 -972 1006 0
-972 -1004 1006 0
-937 -1004 1006 0
937 972 -1006 0
972 1004 -1006 0
937 1004 -1006 0
936 971 -1009 0
-936 -971 -1009 0
-936 971 1009 0
936 -971 1009 0
1009 1006 -984 0
-1009 -1006 -984 0
-1009 1006 984 0
1009 -1006 984 0
-936 -971 1008 0
-971 -1006 1008 0
-936 -1006 1008 0
936 971 -1008 0
971 1006 -1008 0
936 1006 -1008 0
935 970 -1011 0
-935 -970 -1011 0
-935 970 1011 0
935 -970 1011 0
1011 1008 -983 0
-1011 -1008 -983 0
-1011 1008 983 0
1011 -1008 983 0
-935 -970 1010 0
-970 -1008 1010 0
-935 -1008 1010 0
935 970 -1010 0
970 1008 -1010 0
935 1008 -1010 0
934 969 -1013 0
-934 -969 -1013 0
-934 969 1013 0
934 -969 1013 0
1013 1010 -982 0
-1013 -1010 -982 0
-1013 1010 982 0
1013 -1010 982 0
-934 -969 1012 0
-969 -1010 1012 0
-934 -1010 1012 0
934 969 -1012 0
969 1010 -1012 0
934 1010 -1012 0
933 968 -1014 0
-933 -968 -1014 0
-933 968 1014 0
933 -968 1014 0
1014 1012 -981 0
-1014 -1012 -981 0
-1014 1012 981 0
1014 -1012 981 0
-933 -968 980 0
-968 -1012 980 0
-933 -1012 980 0
933 968 -980 0
968 1012 -980 0
933 1012 -980 0
762 -1015 0
757 -1015 0
-762 -757 1015 0
762 -1016 0
758 -1016 0
-762 -758 1016 0
762 -1017 0
759 -1017 0
-762 -759 1017 0
762 -1018 0
760 -1018 0
-762 -760 1018 0
762 -1019 0
761 -1019 0
-762 -761 1019 0
762 -1020 0
762 -1020 0
-762 -762 1020 0
762 -1021 0
763 -1021 0
-762 -763 1021 0
762 -1022 0
764 -1022 0
-762 -764 1022 0
762 -1023 0
765 -1023 0
-762 -765 1023 0
762 -1024 0
766 -1024 0
-762 -766 1024 0
762 -1025 0
767 -1025 0
-762 -767 1025 0
762 -1026 0
768 -1026 0
-762 -768 1026 0
991 1026 -1039 0
-991 -1026 -1039 0
-991 1026 1039 0
991 -1026 1039 0
991 -1040 0
1026 -1040 0
-991 -1026 1040 0
990 1025 -1042 0
-990 -1025 -1042 0
-990 1025 1042 0
990 -1025 1042 0
1042 1040 -1038 0
-1042 -1040 -1038 0
-1042 1040 1038 0
1042 -1040 1038 0
-990 -1025 1041 0
-1025 -1040 1041 0
-990 -1040 1041 0
990 1025 -1041 0
1025 1040 -1041 0
990 1040 -1041 0
989 1024 -1044 0
-989 -1024 -1044 0
-989 1024 1044 0
989 -1024 1044 0
1044 1041 -1037 0
-1044 -1041 -1037 0
-1044 1041 1037 0
1044 -1041 1037 0
-989 -1024 1043 0
-1024 -1041 1043 0
-989 -1041 1043 0
989 1024 -1043 0
1024 1041 -1043 0
989 1041 -1043 0
988 1023 -1046 0
-988 -1023 -1046 0
-988 1023 1046 0
988 -1023 1046 0
1046 1043 -1036 0
-1046 -1043 -1036 0
-1046 1043 1036 0
1046 -1043 1036 0
-988 -1023 1045 0
-1023 -1043 1045 0
-988 -1043 1045 0
988 1023 -1045 0
1023 1043 -1045 0
988 1043 -1045 0
987 1022 -1048 0
-987 -1022 -1048 0
-987 1022 1048 0
987 -1022 1048 0
1048 1045 -1035 0
-1048 -1045 -1035 0
-1048 1045 1035 0
1048 -1045 1035 0
-987 -1022 1047 0
-1022 -1045 1047 0
-987 -1045 1047 0
987 1022 -1047 0
1022 1045 -1047 0
987 1045 -1047 0
986 1021 -1050 0
-986 -1021 -1050 0
-986 1021 1050 0
986 -1021 1050 0
1050 1047 -1034 0
-1050 -1047 -1034 0
-1050 1047 1034 0
1050 -1047 1034 0
-986 -1021 1049 0
-1021 -1047 1049 0
-986 -1047 1049 0
986 1021 -1049 0
1021 1047 -1049 0
986 1047 -1049 0
985 1020 -1052 0
-985 -1020 -1052 0
-985 1020 1052 0
985 -1020 1052 0
1052 1049 -1033 0
-1052 -1049 -1033 0
-1052 1049 1033 0
1052 -1049 1033 0
-985 -1020 1051 0
-1020 -1049 1051 0
-985 -1049 1051 0
985 1020 -1051 0
1020 1049 -1051 0
985 1049 -1051 0
984 1019 -1054 0
-984 -1019 -1054 0
-984 1019 1054 0
984 -1019 1054 0
1054 1051 -1032 0
-1054 -1051 -1032 0
-1054 1051 1032 0
1054 -1051 1032 0
-984 -1019 1053 0
-1019 -1051 1053 0
-984 -1051 1053 0
984 1019 -1053 0
1019 1051 -1053 0
984 1051 -1053 0
983 1018 -1056 0
-983 -1018 -1056 0
-983 1018 1056 0
983 -1018 1056 0
1056 1053 -1031 0
-1056 -1053 -1031 0
-1056 1053 1031 0
1056 -1053 1031 0
-983 -1018 1055 0
-1018 -1053 1055 0
-983 -1053 1055 0
983 1018 -1055 0
1018 1053 -1055 0
983 1053 -1055 0
982 1017 -1058 0
-982 -1017 -1058 0
-982 1017 1058 0
982 -1017 1058 0
1058 1055 -1030 0
-1058 -1055 -1030 0
-1058 1055 1030 0
1058 -1055 1030 0
-982 -1017 1057 0
-1017 -1055 1057 0
-982 -1055 1057 0
982 1017 -1057 0
1017 1055 -1057 0
982 1055 -1057 0
981 1016 -1060 0
-981 -1016 -1060 0
-981 1016 1060 0
981 -1016 1060 0
1060 1057 -1029 0
-1060 -1057 -1029 0
-1060 1057 1029 0
1060 -1057 1029 0
-981 -1016 1059 0
-1016 -1057 1059 0
-981 -1057 1059 0
981 1016 -1059 0
1016 1057 -1059 0
981 1057 -1059 0
980 1015 -1061 0
-980 -1015 -1061 0
-980 1015 1061 0
980 -1015 1061 0
1061 1059 -1028 0
-1061 -1059 -1028 0
-1061 1059 1028 0
1061 -1059 1028 0
-980 -1015 1027 0
-1015 -1059 1027 0
-980 -1059 1027 0
980 1015 -1027 0
1015 1059 -1027 0
980 1059 -1027 0
761 -1062 0
757 -1062 0
-761 -757 1062 0
761 -1063 0
758 -1063 0
-761 -758 1063 0
761 -1064 0
759 -1064 0
-761 -759 1064 0
761 -1065 0
760 -1065 0
-761 -760 1065 0
761 -1066 0
761 -1066 0
-761 -761 1066 0
761 -1067 0
762 -1067 0
-761 -762 1067 0
761 -1068 0
763 -1068 0
-761 -763 1068 0
761 -1069 0
764 -1069 0
-761 -764 1069 0
761 -1070 0
765 -1070 0
-761 -765 1070 0
761 -1071 0
766 -1071 0
-761 -766 1071 0
761 -1072 0
767 -1072 0
-761 -767 1072 0
761 -1073 0
768 -1073 0
-761 -768 1073 0
1038 1073 -1086 0
-1038 -1073 -1086 0
-1038 1073 1086 0
1038 -1073 1086 0
1038 -1087 0
1073 -1087 0
-1038 -1073 1087 0
1037 1072 -1089 0
-1037 -1072 -1089 0
-1037 1072 1089 0
1037 -1072 1089 0
1089 1087 -1085 0
-1089 -1087 -1085 0
-1089 1087 1085 0
1089 -1087 1085 0
-1037 -1072 1088 0
-1072 -1087 1088 0
-1037 -1087 1088 0
1037 1072 -1088 0
1072 1087 -1088 0
1037 1087 -1088 0
1036 1071 -1091 0
-1036 -1071 -1091 0
-1036 1071 1091 0
1036 -1071 1091 0
1091 1088 -1084 0
-1091 -1088 -1084 0
-1091 1088 1084 0
1091 -1088 1084 0
-1036 -1071 1090 0
-1071 -1088 1090 0
-1036 -1088 1090 0
1036 1071 -1090 0
1071 1088 -1090 0
1036 1088 -1090 0
1035 1070 -1093 0
-1035 -1070 -1093 0
-1035 1070 1093 0
1035 -1070 1093 0
1093 1090 -1083 0
-1093 -1090 -1083 0
-1093 1090 1083 0
1093 -1090 1083 0
-1035 -1070 1092 0
-1070 -1090 1092 0
-1035 -1090 1092 0
1035 1070 -1092 0
1070 1090 -1092 0
1035 1090 -1092 0
1034 1069 -1095 0
-1034 -1069 -1095 0
-1034 1069 1095 0
1034 -1069 1095 0
1095 1092 -1082 0
-1095 -1092 -1082 0
-1095 1092 1082 0
1095 -1092 1082 0
-1034 -1069 1094 0
-1069 -1092 1094 0
-1034 -1092 1094 0
1034 1069 -1094 0
1069 1092 -1094 0
1034 1092 -1094 0
1033 1068 -1097 0
-1033 -1068 -1097 0
-1033 1068 1097 0
1033 -1068 1097 0
1097 1094 -1081 0
-1097 -1094 -1081 0
-1097 1094 1081 0
1097 -1094 1081 0
-1033 -1068 1096 0
-1068 -1094 1096 0
-1033 -1094 1096 0
1033 1068 -1096 0
1068 1094 -1096 0
1033 1094 -1096 0
1032 1067 -1099 0
-1032 -1067 -1099 0
-1032 1067 1099 0
1032 -1067 1099 0
1099 1096 -1080 0
-1099 -1096 -1080 0
-1099 1096 1080 0
1099 -1096 1080 0
-1032 -1067 1098 0
-1067 -1096 1098 0
-1032 -1096 1098 0
1032 1067 -1098 0
1067 1096 -1098 0
1032 1096 -1098 0
1031 1066 -1101 0
-1031 -1066 -1101 0
-1031 1066 1101 0
1031 -1066 1101 0
1101 1098 -1079 0
-1101 -1098 -1079 0
-1101 1098 1079 0
1101 -1098 1079 0
-1031 -1066 1100 0
-1066 -1098 1100 0
-1031 -1098 1100 0
1031 1066 -1100 0
1066 1098 -1100 0
1031 1098 -1100 0
1030 1065 -1103 0
-1030 -1065 -1103 0
-1030 1065 1103 0
1030 -1065 1103 0
1103 1100 -1078 0
-1103 -1100 -1078 0
-1103 1100 1078 0
1103 -1100 1078 0
-1030 -1065 1102 0
-1065 -1100 1102 0
-1030 -1100 1102 0
1030 1065 -1102 0
1065 1100 -1102 0
1030 1100 -1102 0
1029 1064 -1105 0
-1029 -1064 -1105 0
-1029 1064 1105 0
1029 -1064 1105 0
1105 1102 -1077 0
-1105 -1102 -1077 0
-1105 1102 1077 0
1105 -1102 1077 0
-1029 -1064 1104 0
-1064 -1102 1104 0
-1029 -1102 1104 0
1029 1064 -1104 0
1064 1102 -1104 0
1029 1102 -1104 0
1028 1063 -1107 0
-1028 -1063 -1107 0
-1028 1063 1107 0
1028 -1063 1107 0
1107 1104 -1076 0
-1107 -1104 -1076 0
-1107 1104 1076 0
1107 -1104 1076 0
-1028 -1063 1106 0
-1063 -1104 1106 0
-1028 -1104 1106 0
1028 1063 -1106 0
1063 1104 -1106 0
1028 1104 -1106 0
1027 1062 -1108 0
-1027 -1062 -1108 0
-1027 1062 1108 0
1027 -1062 1108 0
1108 1106 -1075 0
-1108 -1106 -1075 0
-1108 1106 1075 0
1108 -1106 1075 0
-1027 -1062 1074 0
-1062 -1106 1074 0
-1027 -1106 1074 0
1027 1062 -1074 0
1062 1106 -1074 0
1027 1106 -1074 0
760 -1109 0
757 -1109 0
-760 -757 1109 0
760 -1110 0
758 -1110 0
-760 -758 1110 0
760 -1111 0
759 -1111 0
-760 -759 1111 0
760 -1112 0
760 -1112 0
-760 -760 1112 0
760 -1113 0
761 -1113 0
-760 -761 1113 0
760 -1114 0
762 -1114 0
-760 -762 1114 0
760 -1115 0
763 -1115 0
-760 -763 1115 0
760 -1116 0
764 -1116 0
-760 -764 1116 0
760 -1117 0
765 -1117 0
-760 -765 1117 0
760 -1118 0
766 -1118 0
-760 -766 1118 0
760 -1119 0
767 -1119 0
-760 -767 1119 0
760 -1120 0
768 -1120 0
-760 -768 1120 0
1085 1120 -1133 0
-1085 -1120 -1133 0
-1085 1120 1133 0
1085 -1120 1133 0
1085 -1134 0
1120 -1134 0
-1085 -1120 1134 0
1084 1119 -1136 0
-1084 -1119 -1136 0
-1084 1119 1136 0
1084 -1119 1136 0
1136 1134 -1132 0
-1136 -1134 -1132 0
-1136 1134 1132 0
1136 -1134 1132 0
-1084 -1119 1135 0
-1119 -1134 1135 0
-1084 -1134 1135 0
1084 1119 -1135 0
1119 1134 -1135 0
1084 1134 -1135 0
1083 1118 -1138 0
-1083 -1118 -1138 0
-1083 1118 1138 0
1083 -1118 1138 0
1138 1135 -1131 0
-1138 -1135 -1131 0
-1138 1135 1131 0
1138 -1135 1131 0
-1083 -1118 1137 0
-1118 -1135 1137 0
-1083 -1135 1137 0
1083 1118 -1137 0
1118 1135 -1137 0
1083 1135 -1137 0
1082 1117 -1140 0
-1082 -1117 -1140 0
-1082 1117 1140 0
1082 -1117 1140 0
1140 1137 -1130 0
-1140 -1137 -1130 0
-1140 1137 1130 0
1140 -1137 1130 0
-1082 -1117 1139 0
-1117 -1137 1139 0
-1082 -1137 1139 0
1082 1117 -1139 0
1117 1137 -1139 0
1082 1137 -1139 0
1081 1116 -1142 0
-1081 -1116 -1142 0
-1081 1116 1142 0
1081 -1116 1142 0
1142 1139 -1129 0
-1142 -1139 -1129 0
-1142 1139 1129 0
1142 -1139 1129 0
-1081 -1116 1141 0
-1116 -1139 1141 0
-1081 -1139 1141 0
1081 1116 -1141 0
1116 1139 -1141 0
1081 1139 -1141 0
1080 1115 -1144 0
-1080 -1115 -1144 0
-1080 1115 1144 0
1080 -1115 1144 0
1144 1141 -1128 0
-1144 -1141 -1128 0
-1144 1141 1128 0
1144 -1141 1128 0
-1080 -1115 1143 0
-1115 -1141 1143 0
-1080 -1141 1143 0
1080 1115 -1143 0
1115 1141 -1143 0
1080 1141 -1143 0
1079 1114 -1146 0
-1079 -1114 -1146 0
-1079 1114 1146 0
1079 -1114 1146 0
1146 1143 -1127 0
-1146 -1143 -1127 0
-1146 1143 1127 0
1146 -1143 1127 0
-1079 -1114 1145 0
-1114 -1143 1145 0
-1079 -1143 1145 0
1079 1114 -1145 0
1114 1143 -1145 0
1079 1143 -1145 0
1078 1113 -1148 0
-1078 -1113 -1148 0
-1078 1113 1148 0
1078 -1113 1148 0
1148 1145 -1126 0
-1148 -1145 -1126 0
-1148 1145 1126 0
1148 -1145 1126 0
-1078 -1113 1147 0
-1113 -1145 1147 0
-1078 -1145 1147 0
1078 1113 -1147 0
1113 1145 -1147 0
1078 1145 -1147 0
1077 1112 -1150 0
-1077 -1112 -1150 0
-1077 1112 1150 0
1077 -1112 1150 0
1150 1147 -1125 0
-1150 -1147 -1125 0
-1150 1147 1125 0
1150 -1147 1125 0
-1077 -1112 1149 0
-1112 -1147 1149 0
-1077 -1147 1149 0
1077 1112 -1149 0
1112 1147 -1149 0
1077 1147 -1149 0
1076 1111 -1152 0
-1076 -1111 -1152 0
-1076 1111 1152 0
1076 -1111 1152 0
1152 1149 -1124 0
-1152 -1149 -1124 0
-1152 1149 1124 0
1152 -1149 1124 0
-1076 -1111 1151 0
-1111 -1149 1151 0
-1076 -1149 1151 0
1076 1111 -1151 0
1111 1149 -1151 0
1076 1149 -1151 0
1075 1110 -1154 0
-1075 -1110 -1154 0
-1075 1110 1154 0
1075 -1110 1154 0
1154 1151 -1123 0
-1154 -1151 -1123 0
-1154 1151 1123 0
1154 -1151 1123 0
-1075 -1110 1153 0
-1110 -1151 1153 0
-1075 -1151 1153 0
1075 1110 -1153 0
1110 1151 -1153 0
1075 1151 -1153 0
1074 1109 -1155 0
-1074 -1109 -1155 0
-1074 1109 1155 0
1074 -1109 1155 0
1155 1153 -1122 0
-1155 -1153 -1122 0
-1155 1153 1122 0
1155 -1153 1122 0
-1074 -1109 1121 0
-1109 -1153 1121 0
-1074 -1153 1121 0
1074 1109 -1121 0
1109 1153 -1121 0
1074 1153 -1121 0
759 -1156 0
757 -1156 0
-759 -757 1156 0
759 -1157 0
758 -1157 0
-759 -758 1157 0
759 -1158 0
759 -1158 0
-759 -759 1158 0
759 -1159 0
760 -1159 0
-759 -760 1159 0
759 -1160 0
761 -1160 0
-759 -761 1160 0
759 -1161 0
762 -1161 0
-759 -762 1161 0
759 -1162 0
763 -1162 0
-759 -763 1162 0
759 -1163 0
764 -1163 0
-759 -764 1163 0
759 -1164 0
765 -1164 0
-759 -765 1164 0
759 -1165 0
766 -1165 0
-759 -766 1165 0
759 -1166 0
767 -1166 0
-759 -767 1166 0
759 -1167 0
768 -1167 0
-759 -768 1167 0
1132 1167 -1180 0
-1132 -1167 -1180 0
-1132 1167 1180 0
1132 -1167 1180 0
1132 -1181 0
1167 -1181 0
-1132 -1167 1181 0
1131 1166 -1183 0
-1131 -1166 -1183 0
-1131 1166 1183 0
1131 -1166 1183 0
1183 1181 -1179 0
-1183 -1181 -1179 0
-1183 1181 1179 0
1183 -1181 1179 0
-1131 -1166 1182 0
-1166 -1181 1182 0
-1131 -1181 1182 0
1131 1166 -1182 0
1166 1181 -1182 0
1131 1181 -1182 0
1130 1165 -1185 0
-1130 -1165 -1185 0
-1130 1165 1185 0
1130 -1165 1185 0
1185 1182 -1178 0
-1185 -1182 -1178 0
-1185 1182 1178 0
1185 -1182 1178 0
-1130 -1165 1184 0
-1165 -1182 1184 0
-1130 -1182 1184 0
1130 1165 -1184 0
1165 1182 -1184 0
1130 1182 -1184 0
1129 1164 -1187 0
-1129 -1164 -1187 0
-1129 1164 1187 0
1129 -1164 1187 0
1187 1184 -1177 0
-1187 -1184 -1177 0
-1187 1184 1177 0
1187 -1184 1177 0
-1129 -1164 1186 0
-1164 -1184 1186 0
-1129 -1184 1186 0
1129 1164 -1186 0
1164 1184 -1186 0
1129 1184 -1186 0
1128 1163 -1189 0
-1128 -1163 -1189 0
-1128 1163 1189 0
1128 -1163 1189 0
1189 1186 -1176 0
-1189 -1186 -1176 0
-1189 1186 1176 0
1189 -1186 1176 0
-1128 -1163 1188 0
-1163 -1186 1188 0
-1128 -1186 1188 0
1128 1163 -1188 0
1163 1186 -1188 0
1128 1186 -1188 0
1127 1162 -1191 0
-1127 -1162 -1191 0
-1127 1162 1191 0
1127 -1162 1191 0
1191 1188 -1175 0
-1191 -1188 -1175 0
-1191 1188 1175 0
1191 -1188 1175 0
-1127 -1162 1190 0
-1162 -1188 1190 0
-1127 -1188 1190 0
1127 1162 -1190 0
1162 1188 -1190 0
1127 1188 -1190 0
1126 1161 -1193 0
-1126 -1161 -1193 0
-1126 1161 1193 0
1126 -1161 1193 0
1193 1190 -1174 0
-1193 -1190 -1174 0
-1193 1190 1174 0
1193 -1190 1174 0
-1126 -1161 1192 0
-1161 -1190 1192 0
-1126 -1190 1192 0
1126 1161 -1192 0
1161 1190 -1192 0
1126 1190 -1192 0
1125 1160 -1195 0
-1125 -1160 -1195 0
-1125 1160 1195 0
1125 -1160 1195 0
1195 1192 -1173 0
-1195 -1192 -1173 0
-1195 1192 1173 0
1195 -1192 1173 0
-1125 -1160 1194 0
-1160 -1192 1194 0
-1125 -1192 1194 0
1125 1160 -1194 0
1160 1192 -1194 0
1125 1192 -1194 0
1124 1159 -1197 0
-1124 -1159 -1197 0
-1124 1159 1197 0
1124 -1159 1197 0
1197 1194 -1172 0
-1197 -1194 -1172 0
-1197 1194 1172 0
1197 -1194 1172 0
-1124 -1159 1196 0
-1159 -1194 1196 0
-1124 -1194 1196 0
1124 1159 -1196 0
1159 1194 -1196 0
1124 1194 -1196 0
1123 1158 -1199 0
-1123 -1158 -1199 0
-1123 1158 1199 0
1123 -1158 1199 0
1199 1196 -1171 0
-1199 -1196 -1171 0
-1199 1196 1171 0
1199 -1196 1171 0
-1123 -1158 1198 0
-1158 -1196 1198 0
-1123 -1196 1198 0
1123 1158 -1198 0
1158 1196 -1198 0
1123 1196 -1198 0
1122 1157 -1201 0
-1122 -1157 -1201 0
-1122 1157 1201 0
1122 -1157 1201 0
1201 1198 -1170 0
-1201 -1198 -1170 0
-1201 1198 1170 0
1201 -1198 1170 0
-1122 -1157 1200 0
-1157 -1198 1200 0
-1122 -1198 1200 0
1122 1157 -1200 0
1157 1198 -1200 0
1122 1198 -1200 0
1121 1156 -1202 0
-1121 -1156 -1202 0
-1121 1156 1202 0
1121 -1156 1202 0
1202 1200 -1169 0
-1202 -1200 -1169 0
-1202 1200 1169 0
1202 -1200 1169 0
-1121 -1156 1168 0
-1156 -1200 1168 0
-1121 -1200 1168 0
1121 1156 -1168 0
1156 1200 -1168 0
1121 1200 -1168 0
758 -1203 0
757 -1203 0
-758 -757 1203 0
758 -1204 0
758 -1204 0
-758 -758 1204 0
758 -1205 0
759 -1205 0
-758 -759 1205 0
758 -1206 0
760 -1206 0
-758 -760 1206 0
758 -1207 0
761 -1207 0
-758 -761 1207 0
758 -1208 0
762 -1208 0
-758 -762 1208 0
758 -1209 0
763 -1209 0
-758 -763 1209 0
758 -1210 0
764 -1210 0
-758 -764 1210 0
758 -1211 0
765 -1211 0
-758 -765 1211 0
758 -1212 0
766 -1212 0
-758 -766 1212 0
758 -1213 0
767 -1213 0
-758 -767 1213 0
758 -1214 0
768 -1214 0
-758 -768 1214 0
1179 1214 -1227 0
-1179 -1214 -1227 0
-1179 1214 1227 0
1179 -1214 1227 0
1179 -1228 0
1214 -1228 0
-1179 -1214 1228 0
1178 1213 -1230 0
-1178 -1213 -1230 0
-1178 1213 1230 0
1178 -1213 1230 0
1230 1228 -1226 0
-1230 -1228 -1226 0
-1230 1228 1226 0
1230 -1228 1226 0
-1178 -1213 1229 0
-1213 -1228 1229 0
-1178 -1228 1229 0
1178 1213 -1229 0
1213 1228 -1229 0
1178 1228 -1229 0
1177 1212 -1232 0
-1177 -1212 -1232 0
-1177 1212 1232 0
1177 -1212 1232 0
1232 1229 -1225 0
-1232 -1229 -1225 0
-1232 1229 1225 0
1232 -1229 1225 0
-1177 -1212 1231 0
-1212 -1229 1231 0
-1177 -1229 1231 0
1177 1212 -1231 0
1212 1229 -1231 0
1177 1229 -1231 0
1176 1211 -1234 0
-1176 -1211 -1234 0
-1176 1211 1234 0
1176 -1211 1234 0
1234 1231 -1224 0
-1234 -1231 -1224 0
-1234 1231 1224 0
1234 -1231 1224 0
-1176 -1211 1233 0
-1211 -1231 1233 0
-1176 -1231 1233 0
1176 1211 -1233 0
1211 1231 -1233 0
1176 1231 -1233 0
1175 1210 -1236 0
-1175 -1210 -1236 0
-1175 1210 1236 0
1175 -1210 1236 0
1236 1233 -1223 0
-1236 -1233 -1223 0
-1236 1233 1223 0
1236 -1233 1223 0
-1175 -1210 1235 0
-1210 -1233 1235 0
-1175 -1233 1235 0
1175 1210 -1235 0
1210 1233 -1235 0
1175 1233 -1235 0
1174 1209 -1238 0
-1174 -1209 -1238 0
-1174 1209 1238 0
1174 -1209 1238 0
1238 1235 -1222 0
-1238 -1235 -1222 0
-1238 1235 1222 0
1238 -1235 1222 0
-1174 -1209 1237 0
-1209 -1235 1237 0
-1174 -1235 1237 0
1174 1209 -1237 0
1209 1235 -1237 0
1174 1235 -1237 0
1173 1208 -1240 0
-1173 -1208 -1240 0
-1173 1208 1240 0
1173 -1208 1240 0
1240 1237 -1221 0
-1240 -1237 -1221 0
-1240 1237 1221 0
1240 -1237 1221 0
-1173 -1208 1239 0
-1208 -1237 1239 0
-1173 -1237 1239 0
1173 1208 -1239 0
1208 1237 -1239 0
1173 1237 -1239 0
1172 1207 -1242 0
-1172 -1207 -1242 0
-1172 1207 1242 0
1172 -1207 1242 0
1242 1239 -1220 0
-1242 -1239 -1220 0
-1242 1239 1220 0
1242 -1239 1220 0
-1172 -1207 1241 0
-1207 -1239 1241 0
-1172 -1239 1241 0
1172 1207 -1241 0
1207 1239 -1241 0
1172 1239 -1241 0
1171 1206 -1244 0
-1171 -1206 -1244 0
-1171 1206 1244 0
1171 -1206 1244 0
1244 1241 -1219 0
-1244 -1241 -1219 0
-1244 1241 1219 0
1244 -1241 1219 0
-1171 -1206 1243 0
-1206 -1241 1243 0
-1171 -1241 1243 0
1171 1206 -1243 0
1206 1241 -1243 0
1171 1241 -1243 0
1170 1205 -1246 0
-1170 -1205 -1246 0
-1170 1205 1246 0
1170 -1205 1246 0
1246 1243 -1218 0
-1246 -1243 -1218 0
-1246 1243 1218 0
1246 -1243 1218 0
-1170 -1205 1245 0
-1205 -1243 1245 0
-1170 -1243 1245 0
1170 1205 -1245 0
1205 1243 -1245 0
1170 1243 -1245 0
1169 1204 -1248 0
-1169 -1204 -1248 0
-1169 1204 1248 0
1169 -1204 1248 0
1248 1245 -1217 0
-1248 -1245 -1217 0
-1248 1245 1217 0
1248 -1245 1217 0
-1169 -1204 1247 0
-1204 -1245 1247 0
-1169 -1245 1247 0
1169 1204 -1247 0
1204 1245 -1247 0
1169 1245 -1247 0
1168 1203 -1249 0
-1168 -1203 -1249 0
-1168 1203 1249 0
1168 -1203 1249 0
1249 1247 -1216 0
-1249 -1247 -1216 0
-1249 1247 1216 0
1249 -1247 1216 0
-1168 -1203 1215 0
-1203 -1247 1215 0
-1168 -1247 1215 0
1168 1203 -1215 0
1203 1247 -1215 0
1168 1247 -1215 0
757 -1250 0
757 -1250 0
-757 -757 1250 0
757 -1251 0
758 -1251 0
-757 -758 1251 0
757 -1252 0
759 -1252 0
-757 -759 1252 0
757 -1253 0
760 -1253 0
-757 -760 1253 0
757 -1254 0
761 -1254 0
-757 -761 1254 0
757 -1255 0
762 -1255 0
-757 -762 1255 0
757 -1256 0
763 -1256 0
-757 -763 1256 0
757 -1257 0
764 -1257 0
-757 -764 1257 0
757 -1258 0
765 -1258 0
-757 -765 1258 0
757 -1259 0
766 -1259 0
-757 -766 1259 0
757 -1260 0
767 -1260 0
-757 -767 1260 0
757 -1261 0
768 -1261 0
-757 -768 1261 0
1226 1261 -1274 0
-1226 -1261 -1274 0
-1226 1261 1274 0
1226 -1261 1274 0
1226 -1275 0
1261 -1275 0
-1226 -1261 1275 0
1225 1260 -1277 0
-1225 -1260 -1277 0
-1225 1260 1277 0
1225 -1260 1277 0
1277 1275 -1273 0
-1277 -1275 -1273 0
-1277 1275 1273 0
1277 -1275 1273 0
-1225 -1260 1276 0
-1260 -1275 1276 0
-1225 -1275 1276 0
1225 1260 -1276 0
1260 1275 -1276 0
1225 1275 -1276 0
1224 1259 -1279 0
-1224 -1259 -1279 0
-1224 1259 1279 0
1224 -1259 1279 0
1279 1276 -1272 0
-1279 -1276 -1272 0
-1279 1276 1272 0
1279 -1276 1272 0
-1224 -1259 1278 0
-1259 -1276 1278 0
-1224 -1276 1278 0
1224 1259 -1278 0
1259 1276 -1278 0
1224 1276 -1278 0
1223 1258 -1281 0
-1223 -1258 -1281 0
-1223 1258 1281 0
1223 -1258 1281 0
1281 1278 -1271 0
-1281 -1278 -1271 0
-1281 1278 1271 0
1281 -1278 1271 0
-1223 -1258 1280 0
-1258 -1278 1280 0
-1223 -1278 1280 0
1223 1258 -1280 0
1258 1278 -1280 0
1223 1278 -1280 0
1222 1257 -1283 0
-1222 -1257 -1283 0
-1222 1257 1283 0
1222 -1257 1283 0
1283 1280 -1270 0
-1283 -1280 -1270 0
-1283 1280 1270 0
1283 -1280 1270 0
-1222 -1257 1282 0
-1257 -1280 1282 0
-1222 -1280 1282 0
1222 1257 -1282 0
1257 1280 -1282 0
1222 1280 -1282 0
1221 1256 -1285 0
-1221 -1256 -1285 0
-1221 1256 1285 0
1221 -1256 1285 0
1285 1282 -1269 0
-1285 -1282 -1269 0
-1285 1282 1269 0
1285 -1282 1269 0
-1221 -1256 1284 0
-1256 -1282 1284 0
-1221 -1282 1284 0
1221 1256 -1284 0
1256 1282 -1284 0
1221 1282 -1284 0
1220 1255 -1287 0
-1220 -1255 -1287 0
-1220 1255 1287 0
1220 -1255 1287 0
1287 1284 -1268 0
-1287 -1284 -1268 0
-1287 1284 1268 0
1287 -1284 1268 0
-1220 -1255 1286 0
-1255 -1284 1286 0
-1220 -1284 1286 0
1220 1255 -1286 0
1255 1284 -1286 0
1220 1284 -1286 0
1219 1254 -1289 0
-1219 -1254 -1289 0
-1219 1254 1289 0
1219 -1254 1289 0
1289 1286 -1267 0
-1289 -1286 -1267 0
-1289 1286 1267 0
1289 -1286 1267 0
-1219 -1254 1288 0
-1254 -1286 1288 0
-1219 -1286 1288 0
1219 1254 -1288 0
1254 1286 -1288 0
1219 1286 -1288 0
1218 1253 -1291 0
-1218 -1253 -1291 0
-1218 1253 1291 0
1218 -1253 1291 0
1291 1288 -1266 0
-1291 -1288 -1266 0
-1291 1288 1266 0
1291 -1288 1266 0
-1218 -1253 1290 0
-1253 -1288 1290 0
-1218 -1288 1290 0
1218 1253 -1290 0
1253 1288 -1290 0
1218 1288 -1290 0
1217 1252 -1293 0
-1217 -1252 -1293 0
-1217 1252 1293 0
1217 -1252 1293 0
1293 1290 -1265 0
-1293 -1290 -1265 0
-1293 1290 1265 0
1293 -1290 1265 0
-1217 -1252 1292 0
-1252 -1290 1292 0
-1217 -1290 1292 0
1217 1252 -1292 0
1252 1290 -1292 0
1217 1290 -1292 0
1216 1251 -1295 0
-1216 -1251 -1295 0
-1216 1251 1295 0
1216 -1251 1295 0
1295 1292 -1264 0
-1295 -1292 -1264 0
-1295 1292 1264 0
1295 -1292 1264 0
-1216 -1251 1294 0
-1251 -1292 1294 0
-1216 -1292 1294 0
1216 1251 -1294 0
1251 1292 -1294 0
1216 1292 -1294 0
1215 1250 -1296 0
-1215 -1250 -1296 0
-1215 1250 1296 0
1215 -1250 1296 0
1296 1294 -1263 0
-1296 -1294 -1263 0
-1296 1294 1263 0
1296 -1294 1263 0
-1215 -1250 1262 0
-1250 -1294 1262 0
-1215 -1294 1262 0
1215 1250 -1262 0
1250 1294 -1262 0
1215 1294 -1262 0
1262 -25 0
-1262 25 0
1263 -26 0
-1263 26 0
1264 -27 0
-1264 27 0
1265 -28 0
-1265 28 0
1266 -29 0
-1266 29 0
1267 -30 0
-1267 30 0
1268 -31 0
-1268 31 0
1269 -32 0
-1269 32 0
1270 -33 0
-1270 33 0
1271 -34 0
-1271 34 0
1272 -35 0
-1272 35 0
1273 -36 0
-1273 36 0
1274 -37 0
-1274 37 0
1227 -38 0
-1227 38 0
1180 -39 0
-1180 39 0
1133 -40 0
-1133 40 0
1086 -41 0
-1086 41 0
1039 -42 0
-1039 42 0
992 -43 0
-992 43 0
945 -44 0
-945 44 0
898 -45 0
-898 45 0
851 -46 0
-851 46 0
805 -47 0
-805 47 0
780 -48 0
-780 48 0
49 50 51 52 53 54 55 56 57 58 59 60 61 62 63 64 65 66 67 68 69 70 71 72 0
1308 -1309 0
1297 -1309 0
-1308 -1297 1309 0
1308 -1310 0
1298 -1310 0
-1308 -1298 1310 0
1308 -1311 0
1299 -1311 0
-1308 -1299 1311 0
1308 -1312 0
1300 -1312 0
-1308 -1300 1312 0
1308 -1313 0
1301 -1313 0
-1308 -1301 1313 0
1308 -1314 0
1302 -1314 0
-1308 -1302 1314 0
1308 -1315 0
1303 -1315 0
-1308 -1303 1315 0
1308 -1316 0
1304 -1316 0
-1308 -1304 1316 0
1308 -1317 0
1305 -1317 0
-1308 -1305 1317 0
1308 -1318 0
1306 -1318 0
-1308 -1306 1318 0
1308 -1319 0
1307 -1319 0
-1308 -1307 1319 0
1308 -1320 0
1308 -1320 0
-1308 -1308 1320 0
1307 -1321 0
1297 -1321 0
-1307 -1297 1321 0
1307 -1322 0
1298 -1322 0
-1307 -1298 1322 0
1307 -1323 0
1299 -1323 0
-1307 -1299 1323 0
1307 -1324 0
1300 -1324 0
-1307 -1300 1324 0
1307 -1325 0
1301 -1325 0
-1307 -1301 1325 0
1307 -1326 0
1302 -1326 0
-1307 -1302 1326 0
1307 -1327 0
1303 -1327 0
-1307 -1303 1327 0
1307 -1328 0
1304 -1328 0
-1307 -1304 1328 0
1307 -1329 0
1305 -1329 0
-1307 -1305 1329 0
1307 -1330 0
1306 -1330 0
-1307 -1306 1330 0
1307 -1331 0
1307 -1331 0
-1307 -1307 1331 0
1307 -1332 0
1308 -1332 0
-1307 -1308 1332 0
1319 1332 -1345 0
-1319 -1332 -1345 0
-1319 1332 1345 0
1319 -1332 1345 0
1319 -1346 0
1332 -1346 0
-1319 -1332 1346 0
1318 1331 -1348 0
-1318 -1331 -1348 0
-1318 1331 1348 0
1318 -1331 1348 0
1348 1346 -1344 0
-1348 -1346 -1344 0
-1348 1346 1344 0
1348 -1346 1344 0
-1318 -1331 1347 0
-1331 -1346 1347 0
-1318 -1346 1347 0
1318 1331 -1347 0
1331 1346 -1347 0
1318 1346 -1347 0
1317 1330 -1350 0
-1317 -1330 -1350 0
-1317 1330 1350 0
1317 -1330 1350 0
1350 1347 -1343 0
-1350 -1347 -1343 0
-1350 1347 1343 0
1350 -1347 1343 0
-1317 -1330 1349 0
-1330 -1347 1349 0
-1317 -1347 1349 0
1317 1330 -1349 0
1330 1347 -1349 0
1317 1347 -1349 0
1316 1329 -1352 0
-1316 -1329 -1352 0
-1316 1329 1352 0
1316 -1329 1352 0
1352 1349 -1342 0
-1352 -1349 -1342 0
-1352 1349 1342 0
1352 -1349 1342 0
-1316 -1329 1351 0
-1329 -1349 1351 0
-1316 -1349 1351 0
1316 1329 -1351 0
1329 1349 -1351 0
1316 1349 -1351 0
1315 1328 -1354 0
-1315 -1328 -1354 0
-1315 1328 1354 0
1315 -1328 1354 0
1354 1351 -1341 0
-1354 -1351 -1341 0
-1354 1351 1341 0
1354 -1351 1341 0
-1315 -1328 1353 0
-1328 -1351 1353 0
-1315 -1351 1353 0
1315 1328 -1353 0
1328 1351 -1353 0
1315 1351 -1353 0
1314 1327 -1356 0
-1314 -1327 -1356 0
-1314 1327 1356 0
1314 -1327 1356 0
1356 1353 -1340 0
-1356 -1353 -1340 0
-1356 1353 1340 0
1356 -1353 1340 0
-1314 -1327 1355 0
-1327 -1353 1355 0
-1314 -1353 1355 0
1314 1327 -1355 0
1327 1353 -1355 0
1314 1353 -1355 0
1313 1326 -1358 0
-1313 -1326 -1358 0
-1313 1326 1358 0
1313 -1326 1358 0
1358 1355 -1339 0
-1358 -1355 -1339 0
-1358 1355 1339 0
1358 -1355 1339 0
-1313 -1326 1357 0
-1326 -1355 1357 0
-1313 -1355 1357 0
1313 1326 -1357 0
1326 1355 -1357 0
1313 1355 -1357 0
1312 1325 -1360 0
-1312 -1325 -1360 0
-1312 1325 1360 0
1312 -1325 1360 0
1360 1357 -1338 0
-1360 -1357 -1338 0
-1360 1357 1338 0
1360 -1357 1338 0
-1312 -1325 1359 0
-1325 -1357 1359 0
-1312 -1357 1359 0
1312 1325 -1359 0
1325 1357 -1359 0
1312 1357 -1359 0
1311 1324 -1362 0
-1311 -1324 -1362 0
-1311 1324 1362 0
1311 -1324 1362 0
1362 1359 -1337 0
-1362 -1359 -1337 0
-1362 1359 1337 0
1362 -1359 1337 0
-1311 -1324 1361 0
-1324 -1359 1361 0
-1311 -1359 1361 0
1311 1324 -1361 0
1324 1359 -1361 0
1311 1359 -1361 0
1310 1323 -1364 0
-1310 -1323 -1364 0
-1310 1323 1364 0
1310 -1323 1364 0
1364 1361 -1336 0
-1364 -1361 -1336 0
-1364 1361 1336 0
1364 -1361 1336 0
-1310 -1323 1363 0
-1323 -1361 1363 0
-1310 -1361 1363 0
1310 1323 -1363 0
1323 1361 -1363 0
1310 1361 -1363 0
1309 1322 -1366 0
-1309 -1322 -1366 0
-1309 1322 1366 0
1309 -1322 1366 0
1366 1363 -1335 0
-1366 -1363 -1335 0
-1366 1363 1335 0
1366 -1363 1335 0
-1309 -1322 1365 0
-1322 -1363 1365 0
-1309 -1363 1365 0
1309 1322 -1365 0
1322 1363 -1365 0
1309 1363 -1365 0
1321 1365 -1334 0
-1321 -1365 -1334 0
-1321 1365 1334 0
1321 -1365 1334 0
1321 -1333 0
1365 -1333 0
-1321 -1365 1333 0
1306 -1367 0
1297 -1367 0
-1306 -1297 1367 0
1306 -1368 0
1298 -1368 0
-1306 -1298 1368 0
1306 -1369 0
1299 -1369 0
-1306 -1299 1369 0
1306 -1370 0
1300 -1370 0
-1306 -1300 1370 0
1306 -1371 0
1301 -1371 0
-1306 -1301 1371 0
1306 -1372 0
1302 -1372 0
-1306 -1302 1372 0
1306 -1373 0
1303 -1373 0
-1306 -1303 1373 0
1306 -1374 0
1304 -1374 0
-1306 -1304 1374 0
1306 -1375 0
1305 -1375 0
-1306 -1305 1375 0
1306 -1376 0
1306 -1376 0
-1306 -1306 1376 0
1306 -1377 0
1307 -1377 0
-1306 -1307 1377 0
1306 -1378 0
1308 -1378 0
-1306 -1308 1378 0
1344 1378 -1391 0
-1344 -1378 -1391 0
-1344 1378 1391 0
1344 -1378 1391 0
1344 -1392 0
1378 -1392 0
-1344 -1378 1392 0
1343 1377 -1394 0
-1343 -1377 -1394 0
-1343 1377 1394 0
1343 -1377 1394 0
1394 1392 -1390 0
-1394 -1392 -1390 0
-1394 1392 1390 0
1394 -1392 1390 0
-1343 -1377 1393 0
-1377 -1392 1393 0
-1343 -1392 1393 0
1343 1377 -1393 0
1377 1392 -1393 0
1343 1392 -1393 0
1342 1376 -1396 0
-1342 -1376 -1396 0
-1342 1376 1396 0
1342 -1376 1396 0
1396 1393 -1389 0
-1396 -1393 -1389 0
-1396 1393 1389 0
1396 -1393 1389 0
-1342 -1376 1395 0
-1376 -1393 1395 0
-1342 -1393 1395 0
1342 1376 -1395 0
1376 1393 -1395 0
1342 1393 -1395 0
1341 1375 -1398 0
-1341 -1375 -1398 0
-1341 1375 1398 0
1341 -1375 1398 0
1398 1395 -1388 0
-1398 -1395 -1388 0
-1398 1395 1388 0
1398 -1395 1388 0
-1341 -1375 1397 0
-1375 -1395 1397 0
-1341 -1395 1397 0
1341 1375 -1397 0
1375 1395 -1397 0
1341 1395 -1397 0
1340 1374 -1400 0
-1340 -1374 -1400 0
-1340 1374 1400 0
1340 -1374 1400 0
1400 1397 -1387 0
-1400 -1397 -1387 0
-1400 1397 1387 0
1400 -1397 1387 0
-1340 -1374 1399 0
-1374 -1397 1399 0
-1340 -1397 1399 0
1340 1374 -1399 0
1374 1397 -1399 0
1340 1397 -1399 0
1339 1373 -1402 0
-1339 -1373 -1402 0
-1339 1373 1402 0
1339 -1373 1402 0
1402 1399 -1386 0
-1402 -1399 -1386 0
-1402 1399 1386 0
1402 -1399 1386 0
-1339 -1373 1401 0
-1373 -1399 1401 0
-1339 -1399 1401 0
1339 1373 -1401 0
1373 1399 -1401 0
1339 1399 -1401 0
1338 1372 -1404 0
-1338 -1372 -1404 0
-1338 1372 1404 0
1338 -1372 1404 0
1404 1401 -1385 0
-1404 -1401 -1385 0
-1404 1401 1385 0
1404 -1401 1385 0
-1338 -1372 1403 0
-1372 -1401 1403 0
-1338 -1401 1403 0
1338 1372 -1403 0
1372 1401 -1403 0
1338 1401 -1403 0
1337 1371 -1406 0
-1337 -1371 -1406 0
-1337 1371 1406 0
1337 -1371 1406 0
1406 1403 -1384 0
-1406 -1403 -1384 0
-1406 1403 1384 0
1406 -1403 1384 0
-1337 -1371 1405 0
-1371 -1403 1405 0
-1337 -1403 1405 0
1337 1371 -1405 0
1371 1403 -1405 0
1337 1403 -1405 0
1336 1370 -1408 0
-1336 -1370 -1408 0
-1336 1370 1408 0
1336 -1370 1408 0
1408 1405 -1383 0
-1408 -1405 -1383 0
-1408 1405 1383 0
1408 -1405 1383 0
-1336 -1370 1407 0
-1370 -1405 1407 0
-1336 -1405 1407 0
1336 1370 -1407 0
1370 1405 -1407 0
1336 1405 -1407 0
1335 1369 -1410 0
-1335 -1369 -1410 0
-1335 1369 1410 0
1335 -1369 1410 0
1410 1407 -1382 0
-1410 -1407 -1382 0
-1410 1407 1382 0
1410 -1407 1382 0
-1335 -1369 1409 0
-1369 -1407 1409 0
-1335 -1407 1409 0
1335 1369 -1409 0
1369 1407 -1409 0
1335 1407 -1409 0
1334 1368 -1412 0
-1334 -1368 -1412 0
-1334 1368 1412 0
1334 -1368 1412 0
1412 1409 -1381 0
-1412 -1409 -1381 0
-1412 1409 1381 0
1412 -1409 1381 0
-1334 -1368 1411 0
-1368 -1409 1411 0
-1334 -1409 1411 0
1334 1368 -1411 0
1368 1409 -1411 0
1334 1409 -1411 0
1333 1367 -1413 0
-1333 -1367 -1413 0
-1333 1367 1413 0
1333 -1367 1413 0
1413 1411 -1380 0
-1413 -1411 -1380 0
-1413 1411 1380 0
1413 -1411 1380 0
-1333 -1367 1379 0
-1367 -1411 1379 0
-1333 -1411 1379 0
1333 1367 -1379 0
1367 1411 -1379 0
1333 1411 -1379 0
1305 -1414 0
1297 -1414 0
-1305 -1297 1414 0
1305 -1415 0
1298 -1415 0
-1305 -1298 1415 0
1305 -1416 0
1299 -1416 0
-1305 -1299 1416 0
1305 -1417 0
1300 -1417 0
-1305 -1300 1417 0
1305 -1418 0
1301 -1418 0
-1305 -1301 1418 0
1305 -1419 0
1302 -1419 0
-1305 -1302 1419 0
1305 -1420 0
1303 -1420 0
-1305 -1303 1420 0
1305 -1421 0
1304 -1421 0
-1305 -1304 1421 0
1305 -1422 0
1305 -1422 0
-1305 -1305 1422 0
1305 -1423 0
1306 -1423 0
-1305 -1306 1423 0
1305 -1424 0
1307 -1424 0
-1305 -1307 1424 0
1305 -1425 0
1308 -1425 0
-1305 -1308 1425 0
1390 1425 -1438 0
-1390 -1425 -1438 0
-1390 1425 1438 0
1390 -1425 1438 0
1390 -1439 0
1425 -1439 0
-1390 -1425 1439 0
1389 1424 -1441 0
-1389 -1424 -1441 0
-1389 1424 1441 0
1389 -1424 1441 0
1441 1439 -1437 0
-1441 -1439 -1437 0
-1441 1439 1437 0
1441 -1439 1437 0
-1389 -1424 1440 0
-1424 -1439 1440 0
-1389 -1439 1440 0
1389 1424 -1440 0
1424 1439 -1440 0
1389 1439 -1440 0
1388 1423 -1443 0
-1388 -1423 -1443 0
-1388 1423 1443 0
1388 -1423 1443 0
1443 1440 -1436 0
-1443 -1440 -1436 0
-1443 1440 1436 0
1443 -1440 1436 0
-1388 -1423 1442 0
-1423 -1440 1442 0
-1388 -1440 1442 0
1388 1423 -1442 0
1423 1440 -1442 0
1388 1440 -1442 0
1387 1422 -1445 0
-1387 -1422 -1445 0
-1387 1422 1445 0
1387 -1422 1445 0
1445 1442 -1435 0
-1445 -1442 -1435 0
-1445 1442 1435 0
1445 -1442 1435 0
-1387 -1422 1444 0
-1422 -1442 1444 0
-1387 -1442 1444 0
1387 1422 -1444 0
1422 1442 -1444 0
1387 1442 -1444 0
1386 1421 -1447 0
-1386 -1421 -1447 0
-1386 1421 1447 0
1386 -1421 1447 0
1447 1444 -1434 0
-1447 -1444 -1434 0
-1447 1444 1434 0
1447 -1444 1434 0
-1386 -1421 1446 0
-1421 -1444 1446 0
-1386 -1444 1446 0
1386 1421 -1446 0
1421 1444 -1446 0
1386 1444 -1446 0
1385 1420 -1449 0
-1385 -1420 -1449 0
-1385 1420 1449 0
1385 -1420 1449 0
1449 1446 -1433 0
-1449 -1446 -1433 0
-1449 1446 1433 0
1449 -1446 1433 0
-1385 -1420 1448 0
-1420 -1446 1448 0
-1385 -1446 1448 0
1385 1420 -1448 0
1420 1446 -1448 0
1385 1446 -1448 0
1384 1419 -1451 0
-1384 -1419 -1451 0
-1384 1419 1451 0
1384 -1419 1451 0
1451 1448 -1432 0
-1451 -1448 -1432 0
-1451 1448 1432 0
1451 -1448 1432 0
-1384 -1419 1450 0
-1419 -1448 1450 0
-1384 -1448 1450 0
1384 1419 -1450 0
1419 1448 -1450 0
1384 1448 -1450 0
1383 1418 -1453 0
-1383 -1418 -1453 0
-1383 1418 1453 0
1383 -1418 1453 0
1453 1450 -1431 0
-1453 -1450 -1431 0
-1453 1450 1431 0
1453 -1450 1431 0
-1383 -1418 1452 0
-1418 -1450 1452 0
-1383 -1450 1452 0
1383 1418 -1452 0
1418 1450 -1452 0
1383 1450 -1452 0
1382 1417 -1455 0
-1382 -1417 -1455 0
-1382 1417 1455 0
1382 -1417 1455 0
1455 1452 -1430 0
-1455 -1452 -1430 0
-1455 1452 1430 0
1455 -1452 1430 0
-1382 -1417 1454 0
-1417 -1452 1454 0
-1382 -1452 1454 0
1382 1417 -1454 0
1417 1452 -1454 0
1382 1452 -1454 0
1381 1416 -1457 0
-1381 -1416 -1457 0
-1381 1416 1457 0
1381 -1416 1457 0
1457 1454 -1429 0
-1457 -1454 -1429 0
-1457 1454 1429 0
1457 -1454 1429 0
-1381 -1416 1456 0
-1416 -1454 1456 0
-1381 -1454 1456 0
1381 1416 -1456 0
1416 1454 -1456 0
1381 1454 -1456 0
1380 1415 -1459 0
-1380 -1415 -1459 0
-1380 1415 1459 0
1380 -1415 1459 0
1459 1456 -1428 0
-1459 -1456 -1428 0
-1459 1456 1428 0
1459 -1456 1428 0
-1380 -1415 1458 0
-1415 -1456 1458 0
-1380 -1456 1458 0
1380 1415 -1458 0
1415 1456 -1458 0
1380 1456 -1458 0
1379 1414 -1460 0
-1379 -1414 -1460 0
-1379 1414 1460 0
1379 -1414 1460 0
1460 1458 -1427 0
-1460 -1458 -1427 0
-1460 1458 1427 0
1460 -1458 1427 0
-1379 -1414 1426 0
-1414 -1458 1426 0
-1379 -1458 1426 0
1379 1414 -1426 0
1414 1458 -1426 0
1379 1458 -1426 0
1304 -1461 0
1297 -1461 0
-1304 -1297 1461 0
1304 -1462 0
1298 -1462 0
-1304 -1298 1462 0
1304 -1463 0
1299 -1463 0
-1304 -1299 1463 0
1304 -1464 0
1300 -1464 0
-1304 -1300 1464 0
1304 -1465 0
1301 -1465 0
-1304 -1301 1465 0
1304 -1466 0
1302 -1466 0
-1304 -1302 1466 0
1304 -1467 0
1303 -1467 0
-1304 -1303 1467 0
1304 -1468 0
1304 -1468 0
-1304 -1304 1468 0
1304 -1469 0
1305 -1469 0
-1304 -1305 1469 0
1304 -1470 0
1306 -1470 0
-1304 -1306 1470 0
1304 -1471 0
1307 -1471 0
-1304 -1307 1471 0
1304 -1472 0
1308 -1472 0
-1304 -1308 1472 0
1437 1472 -1485 0
-1437 -1472 -1485 0
-1437 1472 1485 0
1437 -1472 1485 0
1437 -1486 0
1472 -1486 0
-1437 -1472 1486 0
1436 1471 -1488 0
-1436 -1471 -1488 0
-1436 1471 1488 0
1436 -1471 1488 0
1488 1486 -1484 0
-1488 -1486 -1484 0
-1488 1486 1484 0
1488 -1486 1484 0
-1436 -1471 1487 0
-1471 -1486 1487 0
-1436 -1486 1487 0
1436 1471 -1487 0
1471 1486 -1487 0
1436 1486 -1487 0
1435 1470 -1490 0
-1435 -1470 -1490 0
-1435 1470 1490 0
1435 -1470 1490 0
1490 1487 -1483 0
-1490 -1487 -1483 0
-1490 1487 1483 0
1490 -1487 1483 0
-1435 -1470 1489 0
-1470 -1487 1489 0
-1435 -1487 1489 0
1435 1470 -1489 0
1470 1487 -1489 0
1435 1487 -1489 0
1434 1469 -1492 0
-1434 -1469 -1492 0
-1434 1469 1492 0
1434 -1469 1492 0
1492 1489 -1482 0
-1492 -1489 -1482 0
-1492 1489 1482 0
1492 -1489 1482 0
-1434 -1469 1491 0
-1469 -1489 1491 0
-1434 -1489 1491 0
1434 1469 -1491 0
1469 1489 -1491 0
1434 1489 -1491 0
1433 1468 -1494 0
-1433 -1468 -1494 0
-1433 1468 1494 0
1433 -1468 1494 0
1494 1491 -1481 0
-1494 -1491 -1481 0
-1494 1491 1481 0
1494 -1491 1481 0
-1433 -1468 1493 0
-1468 -1491 1493 0
-1433 -1491 1493 0
1433 1468 -1493 0
1468 1491 -1493 0
1433 1491 -1493 0
1432 1467 -1496 0
-1432 -1467 -1496 0
-1432 1467 1496 0
1432 -1467 1496 0
1496 1493 -1480 0
-1496 -1493 -1480 0
-1496 1493 1480 0
1496 -1493 1480 0
-1432 -1467 1495 0
-1467 -1493 1495 0
-1432 -1493 1495 0
1432 1467 -1495 0
1467 1493 -1495 0
1432 1493 -1495 0
1431 1466 -1498 0
-1431 -1466 -1498 0
-1431 1466 1498 0
1431 -1466 1498 0
1498 1495 -1479 0
-1498 -1495 -1479 0
-1498 1495 1479 0
1498 -1495 1479 0
-1431 -1466 1497 0
-1466 -1495 1497 0
-1431 -1495 1497 0
1431 1466 -1497 0
1466 1495 -1497 0
1431 1495 -1497 0
1430 1465 -1500 0
-1430 -1465 -1500 0
-1430 1465 1500 0
1430 -1465 1500 0
1500 1497 -1478 0
-1500 -1497 -1478 0
-1500 1497 1478 0
1500 -1497 1478 0
-1430 -1465 1499 0
-1465 -1497 1499 0
-1430 -1497 1499 0
1430 1465 -1499 0
1465 1497 -1499 0
1430 1497 -1499 0
1429 1464 -1502 0
-1429 -1464 -1502 0
-1429 1464 1502 0
1429 -1464 1502 0
1502 1499 -1477 0
-1502 -1499 -1477 0
-1502 1499 1477 0
1502 -1499 1477 0
-1429 -1464 1501 0
-1464 -1499 1501 0
-1429 -1499 1501 0
1429 1464 -1501 0
1464 1499 -1501 0
1429 1499 -1501 0
1428 1463 -1504 0
-1428 -1463 -1504 0
-1428 1463 1504 0
1428 -1463 1504 0
1504 1501 -1476 0
-1504 -1501 -1476 0
-1504 1501 1476 0
1504 -1501 1476 0
-1428 -1463 1503 0
-1463 -1501 1503 0
-1428 -1501 1503 0
1428 1463 -1503 0
1463 1501 -1503 0
1428 1501 -1503 0
1427 1462 -1506 0
-1427 -1462 -1506 0
-1427 1462 1506 0
1427 -1462 1506 0
1506 1503 -1475 0
-1506 -1503 -1475 0
-1506 1503 1475 0
1506 -1503 1475 0
-1427 -1462 1505 0
-1462 -1503 1505 0
-1427 -1503 1505 0
1427 1462 -1505 0
1462 1503 -1505 0
1427 1503 -1505 0
1426 1461 -1507 0
-1426 -1461 -1507 0
-1426 1461 1507 0
1426 -1461 1507 0
1507 1505 -1474 0
-1507 -1505 -1474 0
-1507 1505 1474 0
1507 -1505 1474 0
-1426 -1461 1473 0
-1461 -1505 1473 0
-1426 -1505 1473 0
1426 1461 -1473 0
1461 1505 -1473 0
1426 1505 -1473 0
1303 -1508 0
1297 -1508 0
-1303 -1297 1508 0
1303 -1509 0
1298 -1509 0
-1303 -1298 1509 0
1303 -1510 0
1299 -1510 0
-1303 -1299 1510 0
1303 -1511 0
1300 -1511 0
-1303 -1300 1511 0
1303 -1512 0
1301 -1512 0
-1303 -1301 1512 0
1303 -1513 0
1302 -1513 0
-1303 -1302 1513 0
1303 -1514 0
1303 -1514 0
-1303 -1303 1514 0
1303 -1515 0
1304 -1515 0
-1303 -1304 1515 0
1303 -1516 0
1305 -1516 0
-1303 -1305 1516 0
1303 -1517 0
1306 -1517 0
-1303 -1306 1517 0
1303 -1518 0
1307 -1518 0
-1303 -1307 1518 0
1303 -1519 0
1308 -1519 0
-1303 -1308 1519 0
1484 1519 -1532 0
-1484 -1519 -1532 0
-1484 1519 1532 0
1484 -1519 1532 0
1484 -1533 0
1519 -1533 0
-1484 -1519 1533 0
1483 1518 -1535 0
-1483 -1518 -1535 0
-1483 1518 1535 0
1483 -1518 1535 0
1535 1533 -1531 0
-1535 -1533 -1531 0
-1535 1533 1531 0
1535 -1533 1531 0
-1483 -1518 1534 0
-1518 -1533 1534 0
-1483 -1533 1534 0
1483 1518 -1534 0
1518 1533 -1534 0
1483 1533 -1534 0
1482 1517 -1537 0
-1482 -1517 -1537 0
-1482 1517 1537 0
1482 -1517 1537 0
1537 1534 -1530 0
-1537 -1534 -1530 0
-1537 1534 1530 0
1537 -1534 1530 0
-1482 -1517 1536 0
-1517 -1534 1536 0
-1482 -1534 1536 0
1482 1517 -1536 0
1517 1534 -1536 0
1482 1534 -1536 0
1481 1516 -1539 0
-1481 -1516 -1539 0
-1481 1516 1539 0
1481 -1516 1539 0
1539 1536 -1529 0
-1539 -1536 -1529 0
-1539 1536 1529 0
1539 -1536 1529 0
-1481 -1516 1538 0
-1516 -1536 1538 0
-1481 -1536 1538 0
1481 1516 -1538 0
1516 1536 -1538 0
1481 1536 -1538 0
1480 1515 -1541 0
-1480 -1515 -1541 0
-1480 1515 1541 0
1480 -1515 1541 0
1541 1538 -1528 0
-1541 -1538 -1528 0
-1541 1538 1528 0
1541 -1538 1528 0
-1480 -1515 1540 0
-1515 -1538 1540 0
-1480 -1538 1540 0
1480 1515 -1540 0
1515 1538 -1540 0
1480 1538 -1540 0
1479 1514 -1543 0
-1479 -1514 -1543 0
-1479 1514 1543 0
1479 -1514 1543 0
1543 1540 -1527 0
-1543 -1540 -1527 0
-1543 1540 1527 0
1543 -1540 1527 0
-1479 -1514 1542 0
-1514 -1540 1542 0
-1479 -1540 1542 0
1479 1514 -1542 0
1514 1540 -1542 0
1479 1540 -1542 0
1478 1513 -1545 0
-1478 -1513 -1545 0
-1478 1513 1545 0
1478 -1513 1545 0
1545 1542 -1526 0
-1545 -1542 -1526 0
-1545 1542 1526 0
1545 -1542 1526 0
-1478 -1513 1544 0
-1513 -1542 1544 0
-1478 -1542 1544 0
1478 1513 -1544 0
1513 1542 -1544 0
1478 1542 -1544 0
1477 1512 -1547 0
-1477 -1512 -1547 0
-1477 1512 1547 0
1477 -1512 1547 0
1547 1544 -1525 0
-1547 -1544 -1525 0
-1547 1544 1525 0
1547 -1544 1525 0
-1477 -1512 1546 0
-1512 -1544 1546 0
-1477 -1544 1546 0
1477 1512 -1546 0
1512 1544 -1546 0
1477 1544 -1546 0
1476 1511 -1549 0
-1476 -1511 -1549 0
-1476 1511 1549 0
1476 -1511 1549 0
1549 1546 -1524 0
-1549 -1546 -1524 0
-1549 1546 1524 0
1549 -1546 1524 0
-1476 -1511 1548 0
-1511 -1546 1548 0
-1476 -1546 1548 0
1476 1511 -1548 0
1511 1546 -1548 0
1476 1546 -1548 0
1475 1510 -1551 0
-1475 -1510 -1551 0
-1475 1510 1551 0
1475 -1510 1551 0
1551 1548 -1523 0
-1551 -1548 -1523 0
-1551 1548 1523 0
1551 -1548 1523 0
-1475 -1510 1550 0
-1510 -1548 1550 0
-1475 -1548 1550 0
1475 1510 -1550 0
1510 1548 -1550 0
1475 1548 -1550 0
1474 1509 -1553 0
-1474 -1509 -1553 0
-1474 1509 1553 0
1474 -1509 1553 0
1553 1550 -1522 0
-1553 -1550 -1522 0
-1553 1550 1522 0
1553 -1550 1522 0
-1474 -1509 1552 0
-1509 -1550 1552 0
-1474 -1550 1552 0
1474 1509 -1552 0
1509 1550 -1552 0
1474 1550 -1552 0
1473 1508 -1554 0
-1473 -1508 -1554 0
-1473 1508 1554 0
1473 -1508 1554 0
1554 1552 -1521 0
-1554 -1552 -1521 0
-1554 1552 1521 0
1554 -1552 1521 0
-1473 -1508 1520 0
-1508 -1552 1520 0
-1473 -1552 1520 0
1473 1508 -1520 0
1508 1552 -1520 0
1473 1552 -1520 0
1302 -1555 0
1297 -1555 0
-1302 -1297 1555 0
1302 -1556 0
1298 -1556 0
-1302 -1298 1556 0
1302 -1557 0
1299 -1557 0
-1302 -1299 1557 0
1302 -1558 0
1300 -1558 0
-1302 -1300 1558 0
1302 -1559 0
1301 -1559 0
-1302 -1301 1559 0
1302 -1560 0
1302 -1560 0
-1302 -1302 1560 0
1302 -1561 0
1303 -1561 0
-1302 -1303 1561 0
1302 -1562 0
1304 -1562 0
-1302 -1304 1562 0
1302 -1563 0
1305 -1563 0
-1302 -1305 1563 0
1302 -1564 0
1306 -1564 0
-1302 -1306 1564 0
1302 -1565 0
1307 -1565 0
-1302 -1307 1565 0
1302 -1566 0
1308 -1566 0
-1302 -1308 1566 0
1531 1566 -1579 0
-1531 -1566 -1579 0
-1531 1566 1579 0
1531 -1566 1579 0
1531 -1580 0
1566 -1580 0
-1531 -1566 1580 0
1530 1565 -1582 0
-1530 -1565 -1582 0
-1530 1565 1582 0
1530 -1565 1582 0
1582 1580 -1578 0
-1582 -1580 -1578 0
-1582 1580 1578 0
1582 -1580 1578 0
-1530 -1565 1581 0
-1565 -1580 1581 0
-1530 -1580 1581 0
1530 1565 -1581 0
1565 1580 -1581 0
1530 1580 -1581 0
1529 1564 -1584 0
-1529 -1564 -1584 0
-1529 1564 1584 0
1529 -1564 1584 0
1584 1581 -1577 0
-1584 -1581 -1577 0
-1584 1581 1577 0
1584 -1581 1577 0
-1529 -1564 1583 0
-1564 -1581 1583 0
-1529 -1581 1583 0
1529 1564 -1583 0
1564 1581 -1583 0
1529 1581 -1583 0
1528 1563 -1586 0
-1528 -1563 -1586 0
-1528 1563 1586 0
1528 -1563 1586 0
1586 1583 -1576 0
-1586 -1583 -1576 0
-1586 1583 1576 0
1586 -1583 1576 0
-1528 -1563 1585 0
-1563 -1583 1585 0
-1528 -1583 1585 0
1528 1563 -1585 0
1563 1583 -1585 0
1528 1583 -1585 0
1527 1562 -1588 0
-1527 -1562 -1588 0
-1527 1562 1588 0
1527 -1562 1588 0
1588 1585 -1575 0
-1588 -1585 -1575 0
-1588 1585 1575 0
1588 -1585 1575 0
-1527 -1562 1587 0
-1562 -1585 1587 0
-1527 -1585 1587 0
1527 1562 -1587 0
1562 1585 -1587 0
1527 1585 -1587 0
1526 1561 -1590 0
-1526 -1561 -1590 0
-1526 1561 1590 0
1526 -1561 1590 0
1590 1587 -1574 0
-1590 -1587 -1574 0
-1590 1587 1574 0
1590 -1587 1574 0
-1526 -1561 1589 0
-1561 -1587 1589 0
-1526 -1587 1589 0
1526 1561 -1589 0
1561 1587 -1589 0
1526 1587 -1589 0
1525 1560 -1592 0
-1525 -1560 -1592 0
-1525 1560 1592 0
1525 -1560 1592 0
1592 1589 -1573 0
-1592 -1589 -1573 0
-1592 1589 1573 0
1592 -1589 1573 0
-1525 -1560 1591 0
-1560 -1589 1591 0
-1525 -1589 1591 0
1525 1560 -1591 0
1560 1589 -1591 0
1525 1589 -1591 0
1524 1559 -1594 0
-1524 -1559 -1594 0
-1524 1559 1594 0
1524 -1559 1594 0
1594 1591 -1572 0
-1594 -1591 -1572 0
-1594 1591 1572 0
1594 -1591 1572 0
-1524 -1559 1593 0
-1559 -1591 1593 0
-1524 -1591 1593 0
1524 1559 -1593 0
1559 1591 -1593 0
1524 1591 -1593 0
1523 1558 -1596 0
-1523 -1558 -1596 0
-1523 1558 1596 0
1523 -1558 1596 0
1596 1593 -1571 0
-1596 -1593 -1571 0
-1596 1593 1571 0
1596 -1593 1571 0
-1523 -1558 1595 0
-1558 -1593 1595 0
-1523 -1593 1595 0
1523 1558 -1595 0
1558 1593 -1595 0
1523 1593 -1595 0
1522 1557 -1598 0
-1522 -1557 -1598 0
-1522 1557 1598 0
1522 -1557 1598 0
1598 1595 -1570 0
-1598 -1595 -1570 0
-1598 1595 1570 0
1598 -1595 1570 0
-1522 -1557 1597 0
-1557 -1595 1597 0
-1522 -1595 1597 0
1522 1557 -1597 0
1557 1595 -1597 0
1522 1595 -1597 0
1521 1556 -1600 0
-1521 -1556 -1600 0
-1521 1556 1600 0
1521 -1556 1600 0
1600 1597 -1569 0
-1600 -1597 -1569 0
-1600 1597 1569 0
1600 -1597 1569 0
-1521 -1556 1599 0
-1556 -1597 1599 0
-1521 -1597 1599 0
1521 1556 -1599 0
1556 1597 -1599 0
1521 1597 -1599 0
1520 1555 -1601 0
-1520 -1555 -1601 0
-1520 1555 1601 0
1520 -1555 1601 0
1601 1599 -1568 0
-1601 -1599 -1568 0
-1601 1599 1568 0
1601 -1599 1568 0
-1520 -1555 1567 0
-1555 -1599 1567 0
-1520 -1599 1567 0
1520 1555 -1567 0
1555 1599 -1567 0
1520 1599 -1567 0
1301 -1602 0
1297 -1602 0
-1301 -1297 1602 0
1301 -1603 0
1298 -1603 0
-1301 -1298 1603 0
1301 -1604 0
1299 -1604 0
-1301 -1299 1604 0
1301 -1605 0
1300 -1605 0
-1301 -1300 1605 0
1301 -1606 0
1301 -1606 0
-1301 -1301 1606 0
1301 -1607 0
1302 -1607 0
-1301 -1302 1607 0
1301 -1608 0
1303 -1608 0
-1301 -1303 1608 0
1301 -1609 0
1304 -1609 0
-1301 -1304 1609 0
1301 -1610 0
1305 -1610 0
-1301 -1305 1610 0
1301 -1611 0
1306 -1611 0
-1301 -1306 1611 0
1301 -1612 0
1307 -1612 0
-1301 -1307 1612 0
1301 -1613 0
1308 -1613 0
-1301 -1308 1613 0
1578 1613 -1626 0
-1578 -1613 -1626 0
-1578 1613 1626 0
1578 -1613 1626 0
1578 -1627 0
1613 -1627 0
-1578 -1613 1627 0
1577 1612 -1629 0
-1577 -1612 -1629 0
-1577 1612 1629 0
1577 -1612 1629 0
1629 1627 -1625 0
-1629 -1627 -1625 0
-1629 1627 1625 0
1629 -1627 1625 0
-1577 -1612 1628 0
-1612 -1627 1628 0
-1577 -1627 1628 0
1577 1612 -1628 0
1612 1627 -1628 0
1577 1627 -1628 0
1576 1611 -1631 0
-1576 -1611 -1631 0
-1576 1611 1631 0
1576 -1611 1631 0
1631 1628 -1624 0
-1631 -1628 -1624 0
-1631 1628 1624 0
1631 -1628 1624 0
-1576 -1611 1630 0
-1611 -1628 1630 0
-1576 -1628 1630 0
1576 1611 -1630 0
1611 1628 -1630 0
1576 1628 -1630 0
1575 1610 -1633 0
-1575 -1610 -1633 0
-1575 1610 1633 0
1575 -1610 1633 0
1633 1630 -1623 0
-1633 -1630 -1623 0
-1633 1630 1623 0
1633 -1630 1623 0
-1575 -1610 1632 0
-1610 -1630 1632 0
-1575 -1630 1632 0
1575 1610 -1632 0
1610 1630 -1632 0
1575 1630 -1632 0
1574 1609 -1635 0
-1574 -1609 -1635 0
-1574 1609 1635 0
1574 -1609 1635 0
1635 1632 -1622 0
-1635 -1632 -1622 0
-1635 1632 1622 0
1635 -1632 1622 0
-1574 -1609 1634 0
-1609 -1632 1634 0
-1574 -1632 1634 0
1574 1609 -1634 0
1609 1632 -1634 0
1574 1632 -1634 0
1573 1608 -1637 0
-1573 -1608 -1637 0
-1573 1608 1637 0
1573 -1608 1637 0
1637 1634 -1621 0
-1637 -1634 -1621 0
-1637 1634 1621 0
1637 -1634 1621 0
-1573 -1608 1636 0
-1608 -1634 1636 0
-1573 -1634 1636 0
1573 1608 -1636 0
1608 1634 -1636 0
1573 1634 -1636 0
1572 1607 -1639 0
-1572 -1607 -1639 0
-1572 1607 1639 0
1572 -1607 1639 0
1639 1636 -1620 0
-1639 -1636 -1620 0
-1639 1636 1620 0
1639 -1636 1620 0
-1572 -1607 1638 0
-1607 -1636 1638 0
-1572 -1636 1638 0
1572 1607 -1638 0
1607 1636 -1638 0
1572 1636 -1638 0
1571 1606 -1641 0
-1571 -1606 -1641 0
-1571 1606 1641 0
1571 -1606 1641 0
1641 1638 -1619 0
-1641 -1638 -1619 0
-1641 1638 1619 0
1641 -1638 1619 0
-1571 -1606 1640 0
-1606 -1638 1640 0
-1571 -1638 1640 0
1571 1606 -1640 0
1606 1638 -1640 0
1571 1638 -1640 0
1570 1605 -1643 0
-1570 -1605 -1643 0
-1570 1605 1643 0
1570 -1605 1643 0
1643 1640 -1618 0
-1643 -1640 -1618 0
-1643 1640 1618 0
1643 -1640 1618 0
-1570 -1605 1642 0
-1605 -1640 1642 0
-1570 -1640 1642 0
1570 1605 -1642 0
1605 1640 -1642 0
1570 1640 -1642 0
1569 1604 -1645 0
-1569 -1604 -1645 0
-1569 1604 1645 0
1569 -1604 1645 0
1645 1642 -1617 0
-1645 -1642 -1617 0
-1645 1642 1617 0
1645 -1642 1617 0
-1569 -1604 1644 0
-1604 -1642 1644 0
-1569 -1642 1644 0
1569 1604 -1644 0
1604 1642 -1644 0
1569 1642 -1644 0
1568 1603 -1647 0
-1568 -1603 -1647 0
-1568 1603 1647 0
1568 -1603 1647 0
1647 1644 -1616 0
-1647 -1644 -1616 0
-1647 1644 1616 0
1647 -1644 1616 0
-1568 -1603 1646 0
-1603 -1644 1646 0
-1568 -1644 1646 0
1568 1603 -1646 0
1603 1644 -1646 0
1568 1644 -1646 0
1567 1602 -1648 0
-1567 -1602 -1648 0
-1567 1602 1648 0
1567 -1602 1648 0
1648 1646 -1615 0
-1648 -1646 -1615 0
-1648 1646 1615 0
1648 -1646 1615 0
-1567 -1602 1614 0
-1602 -1646 1614 0
-1567 -1646 1614 0
1567 1602 -1614 0
1602 1646 -1614 0
1567 1646 -1614 0
1300 -1649 0
1297 -1649 0
-1300 -1297 1649 0
1300 -1650 0
1298 -1650 0
-1300 -1298 1650 0
1300 -1651 0
1299 -1651 0
-1300 -1299 1651 0
1300 -1652 0
1300 -1652 0
-1300 -1300 1652 0
1300 -1653 0
1301 -1653 0
-1300 -1301 1653 0
1300 -1654 0
1302 -1654 0
-1300 -1302 1654 0
1300 -1655 0
1303 -1655 0
-1300 -1303 1655 0
1300 -1656 0
1304 -1656 0
-1300 -1304 1656 0
1300 -1657 0
1305 -1657 0
-1300 -1305 1657 0
1300 -1658 0
1306 -1658 0
-1300 -1306 1658 0
1300 -1659 0
1307 -1659 0
-1300 -1307 1659 0
1300 -1660 0
1308 -1660 0
-1300 -1308 1660 0
1625 1660 -1673 0
-1625 -1660 -1673 0
-1625 1660 1673 0
1625 -1660 1673 0
1625 -1674 0
1660 -1674 0
-1625 -1660 1674 0
1624 1659 -1676 0
-1624 -1659 -1676 0
-1624 1659 1676 0
1624 -1659 1676 0
1676 1674 -1672 0
-1676 -1674 -1672 0
-1676 1674 1672 0
1676 -1674 1672 0
-1624 -1659 1675 0
-1659 -1674 1675 0
-1624 -1674 1675 0
1624 1659 -1675 0
1659 1674 -1675 0
1624 1674 -1675 0
1623 1658 -1678 0
-1623 -1658 -1678 0
-1623 1658 1678 0
1623 -1658 1678 0
1678 1675 -1671 0
-1678 -1675 -1671 0
-1678 1675 1671 0
1678 -1675 1671 0
-1623 -1658 1677 0
-1658 -1675 1677 0
-1623 -1675 1677 0
1623 1658 -1677 0
1658 1675 -1677 0
1623 1675 -1677 0
1622 1657 -1680 0
-1622 -1657 -1680 0
-1622 1657 1680 0
1622 -1657 1680 0
1680 1677 -1670 0
-1680 -1677 -1670 0
-1680 1677 1670 0
1680 -1677 1670 0
-1622 -1657 1679 0
-1657 -1677 1679 0
-1622 -1677 1679 0
1622 1657 -1679 0
1657 1677 -1679 0
1622 1677 -1679 0
1621 1656 -1682 0
-1621 -1656 -1682 0
-1621 1656 1682 0
1621 -1656 1682 0
1682 1679 -1669 0
-1682 -1679 -1669 0
-1682 1679 1669 0
1682 -1679 1669 0
-1621 -1656 1681 0
-1656 -1679 1681 0
-1621 -1679 1681 0
1621 1656 -1681 0
1656 1679 -1681 0
1621 1679 -1681 0
1620 1655 -1684 0
-1620 -1655 -1684 0
-1620 1655 1684 0
1620 -1655 1684 0
1684 1681 -1668 0
-1684 -1681 -1668 0
-1684 1681 1668 0
1684 -1681 1668 0
-1620 -1655 1683 0
-1655 -1681 1683 0
-1620 -1681 1683 0
1620 1655 -1683 0
1655 1681 -1683 0
1620 1681 -1683 0
1619 1654 -1686 0
-1619 -1654 -1686 0
-1619 1654 1686 0
1619 -1654 1686 0
1686 1683 -1667 0
-1686 -1683 -1667 0
-1686 1683 1667 0
1686 -1683 1667 0
-1619 -1654 1685 0
-1654 -1683 1685 0
-1619 -1683 1685 0
1619 1654 -1685 0
1654 1683 -1685 0
1619 1683 -1685 0
1618 1653 -1688 0
-1618 -1653 -1688 0
-1618 1653 1688 0
1618 -1653 1688 0
1688 1685 -1666 0
-1688 -1685 -1666 0
-1688 1685 1666 0
1688 -1685 1666 0
-1618 -1653 1687 0
-1653 -1685 1687 0
-1618 -1685 1687 0
1618 1653 -1687 0
1653 1685 -1687 0
1618 1685 -1687 0
1617 1652 -1690 0
-1617 -1652 -1690 0
-1617 1652 1690 0
1617 -1652 1690 0
1690 1687 -1665 0
-1690 -1687 -1665 0
-1690 1687 1665 0
1690 -1687 1665 0
-1617 -1652 1689 0
-1652 -1687 1689 0
-1617 -1687 1689 0
1617 1652 -1689 0
1652 1687 -1689 0
1617 1687 -1689 0
1616 1651 -1692 0
-1616 -1651 -1692 0
-1616 1651 1692 0
1616 -1651 1692 0
1692 1689 -1664 0
-1692 -1689 -1664 0
-1692 1689 1664 0
1692 -1689 1664 0
-1616 -1651 1691 0
-1651 -1689 1691 0
-1616 -1689 1691 0
1616 1651 -1691 0
1651 1689 -1691 0
1616 1689 -1691 0
1615 1650 -1694 0
-1615 -1650 -1694 0
-1615 1650 1694 0
1615 -1650 1694 0
1694 1691 -1663 0
-1694 -1691 -1663 0
-1694 1691 1663 0
1694 -1691 1663 0
-1615 -1650 1693 0
-1650 -1691 1693 0
-1615 -1691 1693 0
1615 1650 -1693 0
1650 1691 -1693 0
1615 1691 -1693 0
1614 1649 -1695 0
-1614 -1649 -1695 0
-1614 1649 1695 0
1614 -1649 1695 0
1695 1693 -1662 0
-1695 -1693 -1662 0
-1695 1693 1662 0
1695 -1693 1662 0
-1614 -1649 1661 0
-1649 -1693 1661 0
-1614 -1693 1661 0
1614 1649 -1661 0
1649 1693 -1661 0
1614 1693 -1661 0
1299 -1696 0
1297 -1696 0
-1299 -1297 1696 0
1299 -1697 0
1298 -1697 0
-1299 -1298 1697 0
1299 -1698 0
1299 -1698 0
-1299 -1299 1698 0
1299 -1699 0
1300 -1699 0
-1299 -1300 1699 0
1299 -1700 0
1301 -1700 0
-1299 -1301 1700 0
1299 -1701 0
1302 -1701 0
-1299 -1302 1701 0
1299 -1702 0
1303 -1702 0
-1299 -1303 1702 0
1299 -1703 0
1304 -1703 0
-1299 -1304 1703 0
1299 -1704 0
1305 -1704 0
-1299 -1305 1704 0
1299 -1705 0
1306 -1705 0
-1299 -1306 1705 0
1299 -1706 0
1307 -1706 0
-1299 -1307 1706 0
1299 -1707 0
1308 -1707 0
-1299 -1308 1707 0
1672 1707 -1720 0
-1672 -1707 -1720 0
-1672 1707 1720 0
1672 -1707 1720 0
1672 -1721 0
1707 -1721 0
-1672 -1707 1721 0
1671 1706 -1723 0
-1671 -1706 -1723 0
-1671 1706 1723 0
1671 -1706 1723 0
1723 1721 -1719 0
-1723 -1721 -1719 0
-1723 1721 1719 0
1723 -1721 1719 0
-1671 -1706 1722 0
-1706 -1721 1722 0
-1671 -1721 1722 0
1671 1706 -1722 0
1706 1721 -1722 0
1671 1721 -1722 0
1670 1705 -1725 0
-1670 -1705 -1725 0
-1670 1705 1725 0
1670 -1705 1725 0
1725 1722 -1718 0
-1725 -1722 -1718 0
-1725 1722 1718 0
1725 -1722 1718 0
-1670 -1705 1724 0
-1705 -1722 1724 0
-1670 -1722 1724 0
1670 1705 -1724 0
1705 1722 -1724 0
1670 1722 -1724 0
1669 1704 -1727 0
-1669 -1704 -1727 0
-1669 1704 1727 0
1669 -1704 1727 0
1727 1724 -1717 0
-1727 -1724 -1717 0
-1727 1724 1717 0
1727 -1724 1717 0
-1669 -1704 1726 0
-1704 -1724 1726 0
-1669 -1724 1726 0
1669 1704 -1726 0
1704 1724 -1726 0
1669 1724 -1726 0
1668 1703 -1729 0
-1668 -1703 -1729 0
-1668 1703 1729 0
1668 -1703 1729 0
1729 1726 -1716 0
-1729 -1726 -1716 0
-1729 1726 1716 0
1729 -1726 1716 0
-1668 -1703 1728 0
-1703 -1726 1728 0
-1668 -1726 1728 0
1668 1703 -1728 0
1703 1726 -1728 0
1668 1726 -1728 0
1667 1702 -1731 0
-1667 -1702 -1731 0
-1667 1702 1731 0
1667 -1702 1731 0
1731 1728 -1715 0
-1731 -1728 -1715 0
-1731 1728 1715 0
1731 -1728 1715 0
-1667 -1702 1730 0
-1702 -1728 1730 0
-1667 -1728 1730 0
1667 1702 -1730 0
1702 1728 -1730 0
1667 1728 -1730 0
1666 1701 -1733 0
-1666 -1701 -1733 0
-1666 1701 1733 0
1666 -1701 1733 0
1733 1730 -1714 0
-1733 -1730 -1714 0
-1733 1730 1714 0
1733 -1730 1714 0
-1666 -1701 1732 0
-1701 -1730 1732 0
-1666 -1730 1732 0
1666 1701 -1732 0
1701 1730 -1732 0
1666 1730 -1732 0
1665 1700 -1735 0
-1665 -1700 -1735 0
-1665 1700 1735 0
1665 -1700 1735 0
1735 1732 -1713 0
-1735 -1732 -1713 0
-1735 1732 1713 0
1735 -1732 1713 0
-1665 -1700 1734 0
-1700 -1732 1734 0
-1665 -1732 1734 0
1665 1700 -1734 0
1700 1732 -1734 0
1665 1732 -1734 0
1664 1699 -1737 0
-1664 -1699 -1737 0
-1664 1699 1737 0
1664 -1699 1737 0
1737 1734 -1712 0
-1737 -1734 -1712 0
-1737 1734 1712 0
1737 -1734 1712 0
-1664 -1699 1736 0
-1699 -1734 1736 0
-1664 -1734 1736 0
1664 1699 -1736 0
1699 1734 -1736 0
1664 1734 -1736 0
1663 1698 -1739 0
-1663 -1698 -1739 0
-1663 1698 1739 0
1663 -1698 1739 0
1739 1736 -1711 0
-1739 -1736 -1711 0
-1739 1736 1711 0
1739 -1736 1711 0
-1663 -1698 1738 0
-1698 -1736 1738 0
-1663 -1736 1738 0
1663 1698 -1738 0
1698 1736 -1738 0
1663 1736 -1738 0
1662 1697 -1741 0
-1662 -1697 -1741 0
-1662 1697 1741 0
1662 -1697 1741 0
1741 1738 -1710 0
-1741 -1738 -1710 0
-1741 1738 1710 0
1741 -1738 1710 0
-1662 -1697 1740 0
-1697 -1738 1740 0
-1662 -1738 1740 0
1662 1697 -1740 0
1697 1738 -1740 0
1662 1738 -1740 0
1661 1696 -1742 0
-1661 -1696 -1742 0
-1661 1696 1742 0
1661 -1696 1742 0
1742 1740 -1709 0
-1742 -1740 -1709 0
-1742 1740 1709 0
1742 -1740 1709 0
-1661 -1696 1708 0
-1696 -1740 1708 0
-1661 -1740 1708 0
1661 1696 -1708 0
1696 1740 -1708 0
1661 1740 -1708 0
1298 -1743 0
1297 -1743 0
-1298 -1297 1743 0
1298 -1744 0
1298 -1744 0
-1298 -1298 1744 0
1298 -1745 0
1299 -1745 0
-1298 -1299 1745 0
1298 -1746 0
1300 -1746 0
-1298 -1300 1746 0
1298 -1747 0
1301 -1747 0
-1298 -1301 1747 0
1298 -1748 0
1302 -1748 0
-1298 -1302 1748 0
1298 -1749 0
1303 -1749 0
-1298 -1303 1749 0
1298 -1750 0
1304 -1750 0
-1298 -1304 1750 0
1298 -1751 0
1305 -1751 0
-1298 -1305 1751 0
1298 -1752 0
1306 -1752 0
-1298 -1306 1752 0
1298 -1753 0
1307 -1753 0
-1298 -1307 1753 0
1298 -1754 0
1308 -1754 0
-1298 -1308 1754 0
1719 1754 -1767 0
-1719 -1754 -1767 0
-1719 1754 1767 0
1719 -1754 1767 0
1719 -1768 0
1754 -1768 0
-1719 -1754 1768 0
1718 1753 -1770 0
-1718 -1753 -1770 0
-1718 1753 1770 0
1718 -1753 1770 0
1770 1768 -1766 0
-1770 -1768 -1766 0
-1770 1768 1766 0
1770 -1768 1766 0
-1718 -1753 1769 0
-1753 -1768 1769 0
-1718 -1768 1769 0
1718 1753 -1769 0
1753 1768 -1769 0
1718 1768 -1769 0
1717 1752 -1772 0
-1717 -1752 -1772 0
-1717 1752 1772 0
1717 -1752 1772 0
1772 1769 -1765 0
-1772 -1769 -1765 0
-1772 1769 1765 0
1772 -1769 1765 0
-1717 -1752 1771 0
-1752 -1769 1771 0
-1717 -1769 1771 0
1717 1752 -1771 0
1752 1769 -1771 0
1717 1769 -1771 0
1716 1751 -1774 0
-1716 -1751 -1774 0
-1716 1751 1774 0
1716 -1751 1774 0
1774 1771 -1764 0
-1774 -1771 -1764 0
-1774 1771 1764 0
1774 -1771 1764 0
-1716 -1751 1773 0
-1751 -1771 1773 0
-1716 -1771 1773 0
1716 1751 -1773 0
1751 1771 -1773 0
1716 1771 -1773 0
1715 1750 -1776 0
-1715 -1750 -1776 0
-1715 1750 1776 0
1715 -1750 1776 0
1776 1773 -1763 0
-1776 -1773 -1763 0
-1776 1773 1763 0
1776 -1773 1763 0
-1715 -1750 1775 0
-1750 -1773 1775 0
-1715 -1773 1775 0
1715 1750 -1775 0
1750 1773 -1775 0
1715 1773 -1775 0
1714 1749 -1778 0
-1714 -1749 -1778 0
-1714 1749 1778 0
1714 -1749 1778 0
1778 1775 -1762 0
-1778 -1775 -1762 0
-1778 1775 1762 0
1778 -1775 1762 0
-1714 -1749 1777 0
-1749 -1775 1777 0
-1714 -1775 1777 0
1714 1749 -1777 0
1749 1775 -1777 0
1714 1775 -1777 0
1713 1748 -1780 0
-1713 -1748 -1780 0
-1713 1748 1780 0
1713 -1748 1780 0
1780 1777 -1761 0
-1780 -1777 -1761 0
-1780 1777 1761 0
1780 -1777 1761 0
-1713 -1748 1779 0
-1748 -1777 1779 0
-1713 -1777 1779 0
1713 1748 -1779 0
1748 1777 -1779 0
1713 1777 -1779 0
1712 1747 -1782 0
-1712 -1747 -1782 0
-1712 1747 1782 0
1712 -1747 1782 0
1782 1779 -1760 0
-1782 -1779 -1760 0
-1782 1779 1760 0
1782 -1779 1760 0
-1712 -1747 1781 0
-1747 -1779 1781 0
-1712 -1779 1781 0
1712 1747 -1781 0
1747 1779 -1781 0
1712 1779 -1781 0
1711 1746 -1784 0
-1711 -1746 -1784 0
-1711 1746 1784 0
1711 -1746 1784 0
1784 1781 -1759 0
-1784 -1781 -1759 0
-1784 1781 1759 0
1784 -1781 1759 0
-1711 -1746 1783 0
-1746 -1781 1783 0
-1711 -1781 1783 0
1711 1746 -1783 0
1746 1781 -1783 0
1711 1781 -1783 0
1710 1745 -1786 0
-1710 -1745 -1786 0
-1710 1745 1786 0
1710 -1745 1786 0
1786 1783 -1758 0
-1786 -1783 -1758 0
-1786 1783 1758 0
1786 -1783 1758 0
-1710 -1745 1785 0
-1745 -1783 1785 0
-1710 -1783 1785 0
1710 1745 -1785 0
1745 1783 -1785 0
1710 1783 -1785 0
1709 1744 -1788 0
-1709 -1744 -1788 0
-1709 1744 1788 0
1709 -1744 1788 0
1788 1785 -1757 0
-1788 -1785 -1757 0
-1788 1785 1757 0
1788 -1785 1757 0
-1709 -1744 1787 0
-1744 -1785 1787 0
-1709 -1785 1787 0
1709 1744 -1787 0
1744 1785 -1787 0
1709 1785 -1787 0
1708 1743 -1789 0
-1708 -1743 -1789 0
-1708 1743 1789 0
1708 -1743 1789 0
1789 1787 -1756 0
-1789 -1787 -1756 0
-1789 1787 1756 0
1789 -1787 1756 0
-1708 -1743 1755 0
-1743 -1787 1755 0
-1708 -1787 1755 0
1708 1743 -1755 0
1743 1787 -1755 0
1708 1787 -1755 0
1297 -1790 0
1297 -1790 0
-1297 -1297 1790 0
1297 -1791 0
1298 -1791 0
-1297 -1298 1791 0
1297 -1792 0
1299 -1792 0
-1297 -1299 1792 0
1297 -1793 0
1300 -1793 0
-1297 -1300 1793 0
1297 -1794 0
1301 -1794 0
-1297 -1301 1794 0
1297 -1795 0
1302 -1795 0
-1297 -1302 1795 0
1297 -1796 0
1303 -1796 0
-1297 -1303 1796 0
1297 -1797 0
1304 -1797 0
-1297 -1304 1797 0
1297 -1798 0
1305 -1798 0
-1297 -1305 1798 0
1297 -1799 0
1306 -1799 0
-1297 -1306 1799 0
1297 -1800 0
1307 -1800 0
-1297 -1307 1800 0
1297 -1801 0
1308 -1801 0
-1297 -1308 1801 0
1766 1801 -1814 0
-1766 -1801 -1814 0
-1766 1801 1814 0
1766 -1801 1814 0
1766 -1815 0
1801 -1815 0
-1766 -1801 1815 0
1765 1800 -1817 0
-1765 -1800 -1817 0
-1765 1800 1817 0
1765 -1800 1817 0
1817 1815 -1813 0
-1817 -1815 -1813 0
-1817 1815 1813 0
1817 -1815 1813 0
-1765 -1800 1816 0
-1800 -1815 1816 0
-1765 -1815 1816 0
1765 1800 -1816 0
1800 1815 -1816 0
1765 1815 -1816 0
1764 1799 -1819 0
-1764 -1799 -1819 0
-1764 1799 1819 0
1764 -1799 1819 0
1819 1816 -1812 0
-1819 -1816 -1812 0
-1819 1816 1812 0
1819 -1816 1812 0
-1764 -1799 1818 0
-1799 -1816 1818 0
-1764 -1816 1818 0
1764 1799 -1818 0
1799 1816 -1818 0
1764 1816 -1818 0
1763 1798 -1821 0
-1763 -1798 -1821 0
-1763 1798 1821 0
1763 -1798 1821 0
1821 1818 -1811 0
-1821 -1818 -1811 0
-1821 1818 1811 0
1821 -1818 1811 0
-1763 -1798 1820 0
-1798 -1818 1820 0
-1763 -1818 1820 0
1763 1798 -1820 0
1798 1818 -1820 0
1763 1818 -1820 0
1762 1797 -1823 0
-1762 -1797 -1823 0
-1762 1797 1823 0
1762 -1797 1823 0
1823 1820 -1810 0
-1823 -1820 -1810 0
-1823 1820 1810 0
1823 -1820 1810 0
-1762 -1797 1822 0
-1797 -1820 1822 0
-1762 -1820 1822 0
1762 1797 -1822 0
1797 1820 -1822 0
1762 1820 -1822 0
1761 1796 -1825 0
-1761 -1796 -1825 0
-1761 1796 1825 0
1761 -1796 1825 0
1825 1822 -1809 0
-1825 -1822 -1809 0
-1825 1822 1809 0
1825 -1822 1809 0
-1761 -1796 1824 0
-1796 -1822 1824 0
-1761 -1822 1824 0
1761 1796 -1824 0
1796 1822 -1824 0
1761 1822 -1824 0
1760 1795 -1827 0
-1760 -1795 -1827 0
-1760 1795 1827 0
1760 -1795 1827 0
1827 1824 -1808 0
-1827 -1824 -1808 0
-1827 1824 1808 0
1827 -1824 1808 0
-1760 -1795 1826 0
-1795 -1824 1826 0
-1760 -1824 1826 0
1760 1795 -1826 0
1795 1824 -1826 0
1760 1824 -1826 0
1759 1794 -1829 0
-1759 -1794 -1829 0
-1759 1794 1829 0
1759 -1794 1829 0
1829 1826 -1807 0
-1829 -1826 -1807 0
-1829 1826 1807 0
1829 -1826 1807 0
-1759 -1794 1828 0
-1794 -1826 1828 0
-1759 -1826 1828 0
1759 1794 -1828 0
1794 1826 -1828 0
1759 1826 -1828 0
1758 1793 -1831 0
-1758 -1793 -1831 0
-1758 1793 1831 0
1758 -1793 1831 0
1831 1828 -1806 0
-1831 -1828 -1806 0
-1831 1828 1806 0
1831 -1828 1806 0
-1758 -1793 1830 0
-1793 -1828 1830 0
-1758 -1828 1830 0
1758 1793 -1830 0
1793 1828 -1830 0
1758 1828 -1830 0
1757 1792 -1833 0
-1757 -1792 -1833 0
-1757 1792 1833 0
1757 -1792 1833 0
1833 1830 -1805 0
-1833 -1830 -1805 0
-1833 1830 1805 0
1833 -1830 1805 0
-1757 -1792 1832 0
-1792 -1830 1832 0
-1757 -1830 1832 0
1757 1792 -1832 0
1792 1830 -1832 0
1757 1830 -1832 0
1756 1791 -1835 0
-1756 -1791 -1835 0
-1756 1791 1835 0
1756 -1791 1835 0
1835 1832 -1804 0
-1835 -1832 -1804 0
-1835 1832 1804 0
1835 -1832 1804 0
-1756 -1791 1834 0
-1791 -1832 1834 0
-1756 -1832 1834 0
1756 1791 -1834 0
1791 1832 -1834 0
1756 1832 -1834 0
1755 1790 -1836 0
-1755 -1790 -1836 0
-1755 1790 1836 0
1755 -1790 1836 0
1836 1834 -1803 0
-1836 -1834 -1803 0
-1836 1834 1803 0
1836 -1834 1803 0
-1755 -1790 1802 0
-1790 -1834 1802 0
-1755 -1834 1802 0
1755 1790 -1802 0
1790 1834 -1802 0
1755 1834 -1802 0
1802 -49 0
-1802 49 0
1803 -50 0
-1803 50 0
1804 -51 0
-1804 51 0
1805 -52 0
-1805 52 0
1806 -53 0
-1806 53 0
1807 -54 0
-1807 54 0
1808 -55 0
-1808 55 0
1809 -56 0
-1809 56 0
1810 -57 0
-1810 57 0
1811 -58 0
-1811 58 0
1812 -59 0
-1812 59 0
1813 -60 0
-1813 60 0
1814 -61 0
-1814 61 0
1767 -62 0
-1767 62 0
1720 -63 0
-1720 63 0
1673 -64 0
-1673 64 0
1626 -65 0
-1626 65 0
1579 -66 0
-1579 66 0
1532 -67 0
-1532 67 0
1485 -68 0
-1485 68 0
1438 -69 0
-1438 69 0
1391 -70 0
-1391 70 0
1345 -71 0
-1345 71 0
1320 -72 0
-1320 72 0
73 74 75 76 77 78 79 80 81 82 83 84 85 86 87 88 89 90 91 92 93 94 95 96 0
1848 -1849 0
1837 -1849 0
-1848 -1837 1849 0
1848 -1850 0
1838 -1850 0
-1848 -1838 1850 0
1848 -1851 0
1839 -1851 0
-1848 -1839 1851 0
1848 -1852 0
1840 -1852 0
-1848 -1840 1852 0
1848 -1853 0
1841 -1853 0
-1848 -1841 1853 0
1848 -1854 0
1842 -1854 0
-1848 -1842 1854 0
1848 -1855 0
1843 -1855 0
-1848 -1843 1855 0
1848 -1856 0
1844 -1856 0
-1848 -1844 1856 0
1848 -1857 0
1845 -1857 0
-1848 -1845 1857 0
1848 -1858 0
1846 -1858 0
-1848 -1846 1858 0
1848 -1859 0
1847 -1859 0
-1848 -1847 1859 0
1848 -1860 0
1848 -1860 0
-1848 -1848 1860 0
1847 -1861 0
1837 -1861 0
-1847 -1837 1861 0
1847 -1862 0
1838 -1862 0
-1847 -1838 1862 0
1847 -1863 0
1839 -1863 0
-1847 -1839 1863 0
1847 -1864 0
1840 -1864 0
-1847 -1840 1864 0
1847 -1865 0
1841 -1865 0
-1847 -1841 1865 0
1847 -1866 0
1842 -1866 0
-1847 -1842 1866 0
1847 -1867 0
1843 -1867 0
-1847 -1843 1867 0
1847 -1868 0
1844 -1868 0
-1847 -1844 1868 0
1847 -1869 0
1845 -1869 0
-1847 -1845 1869 0
1847 -1870 0
1846 -1870 0
-1847 -1846 1870 0
1847 -1871 0
1847 -1871 0
-1847 -1847 1871 0
1847 -1872 0
1848 -1872 0
-1847 -1848 1872 0
1859 1872 -1885 0
-1859 -1872 -1885 0
-1859 1872 1885 0
1859 -1872 1885 0
1859 -1886 0
1872 -1886 0
-1859 -1872 1886 0
1858 1871 -1888 0
-1858 -1871 -1888 0
-1858 1871 1888 0
1858 -1871 1888 0
1888 1886 -1884 0
-1888 -1886 -1884 0
-1888 1886 1884 0
1888 -1886 1884 0
-1858 -1871 1887 0
-1871 -1886 1887 0
-1858 -1886 1887 0
1858 1871 -1887 0
1871 1886 -1887 0
1858 1886 -1887 0
1857 1870 -1890 0
-1857 -1870 -1890 0
-1857 1870 1890 0
1857 -1870 1890 0
1890 1887 -1883 0
-1890 -1887 -1883 0
-1890 1887 1883 0
1890 -1887 1883 0
-1857 -1870 1889 0
-1870 -1887 1889 0
-1857 -1887 1889 0
1857 1870 -1889 0
1870 1887 -1889 0
1857 1887 -1889 0
1856 1869 -1892 0
-1856 -1869 -1892 0
-1856 1869 1892 0
1856 -1869 1892 0
1892 1889 -1882 0
-1892 -1889 -1882 0
-1892 1889 1882 0
1892 -1889 1882 0
-1856 -1869 1891 0
-1869 -1889 1891 0
-1856 -1889 1891 0
1856 1869 -1891 0
1869 1889 -1891 0
1856 1889 -1891 0
1855 1868 -1894 0
-1855 -1868 -1894 0
-1855 1868 1894 0
1855 -1868 1894 0
1894 1891 -1881 0
-1894 -1891 -1881 0
-1894 1891 1881 0
1894 -1891 1881 0
-1855 -1868 1893 0
-1868 -1891 1893 0
-1855 -1891 1893 0
1855 1868 -1893 0
1868 1891 -1893 0
1855 1891 -1893 0
1854 1867 -1896 0
-1854 -1867 -1896 0
-1854 1867 1896 0
1854 -1867 1896 0
1896 1893 -1880 0
-1896 -1893 -1880 0
-1896 1893 1880 0
1896 -1893 1880 0
-1854 -1867 1895 0
-1867 -1893 1895 0
-1854 -1893 1895 0
1854 1867 -1895 0
1867 1893 -1895 0
1854 1893 -1895 0
1853 1866 -1898 0
-1853 -1866 -1898 0
-1853 1866 1898 0
1853 -1866 1898 0
1898 1895 -1879 0
-1898 -1895 -1879 0
-1898 1895 1879 0
1898 -1895 1879 0
-1853 -1866 1897 0
-1866 -1895 1897 0
-1853 -1895 1897 0
1853 1866 -1897 0
1866 1895 -1897 0
1853 1895 -1897 0
1852 1865 -1900 0
-1852 -1865 -1900 0
-1852 1865 1900 0
1852 -1865 1900 0
1900 1897 -1878 0
-1900 -1897 -1878 0
-1900 1897 1878 0
1900 -1897 1878 0
-1852 -1865 1899 0
-1865 -1897 1899 0
-1852 -1897 1899 0
1852 1865 -1899 0
1865 1897 -1899 0
1852 1897 -1899 0
1851 1864 -1902 0
-1851 -1864 -1902 0
-1851 1864 1902 0
1851 -1864 1902 0
1902 1899 -1877 0
-1902 -1899 -1877 0
-1902 1899 1877 0
1902 -1899 1877 0
-1851 -1864 1901 0
-1864 -1899 1901 0
-1851 -1899 1901 0
1851 1864 -1901 0
1864 1899 -1901 0
1851 1899 -1901 0
1850 1863 -1904 0
-1850 -1863 -1904 0
-1850 1863 1904 0
1850 -1863 1904 0
1904 1901 -1876 0
-1904 -1901 -1876 0
-1904 1901 1876 0
1904 -1901 1876 0
-1850 -1863 1903 0
-1863 -1901 1903 0
-1850 -1901 1903 0
1850 1863 -1903 0
1863 1901 -1903 0
1850 1901 -1903 0
1849 1862 -1906 0
-1849 -1862 -1906 0
-1849 1862 1906 0
1849 -1862 1906 0
1906 1903 -1875 0
-1906 -1903 -1875 0
-1906 1903 1875 0
1906 -1903 1875 0
-1849 -1862 1905 0
-1862 -1903 1905 0
-1849 -1903 1905 0
1849 1862 -1905 0
1862 1903 -1905 0
1849 1903 -1905 0
1861 1905 -1874 0
-1861 -1905 -1874 0
-1861 1905 1874 0
1861 -1905 1874 0
1861 -1873 0
1905 -1873 0
-1861 -1905 1873 0
1846 -1907 0
1837 -1907 0
-1846 -1837 1907 0
1846 -1908 0
1838 -1908 0
-1846 -1838 1908 0
1846 -1909 0
1839 -1909 0
-1846 -1839 1909 0
1846 -1910 0
1840 -1910 0
-1846 -1840 1910 0
1846 -1911 0
1841 -1911 0
-1846 -1841 1911 0
1846 -1912 0
1842 -1912 0
-1846 -1842 1912 0
1846 -1913 0
1843 -1913 0
-1846 -1843 1913 0
1846 -1914 0
1844 -1914 0
-1846 -1844 1914 0
1846 -1915 0
1845 -1915 0
-1846 -1845 1915 0
1846 -1916 0
1846 -1916 0
-1846 -1846 1916 0
1846 -1917 0
1847 -1917 0
-1846 -1847 1917 0
1846 -1918 0
1848 -1918 0
-1846 -1848 1918 0
1884 1918 -1931 0
-1884 -1918 -1931 0
-1884 1918 1931 0
1884 -1918 1931 0
1884 -1932 0
1918 -1932 0
-1884 -1918 1932 0
1883 1917 -1934 0
-1883 -1917 -1934 0
-1883 1917 1934 0
1883 -1917 1934 0
1934 1932 -1930 0
-1934 -1932 -1930 0
-1934 1932 1930 0
1934 -1932 1930 0
-1883 -1917 1933 0
-1917 -1932 1933 0
-1883 -1932 1933 0
1883 1917 -1933 0
1917 1932 -1933 0
1883 1932 -1933 0
1882 1916 -1936 0
-1882 -1916 -1936 0
-1882 1916 1936 0
1882 -1916 1936 0
1936 1933 -1929 0
-1936 -1933 -1929 0
-1936 1933 1929 0
1936 -1933 1929 0
-1882 -1916 1935 0
-1916 -1933 1935 0
-1882 -1933 1935 0
1882 1916 -1935 0
1916 1933 -1935 0
1882 1933 -1935 0
1881 1915 -1938 0
-1881 -1915 -1938 0
-1881 1915 1938 0
1881 -1915 1938 0
1938 1935 -1928 0
-1938 -1935 -1928 0
-1938 1935 1928 0
1938 -1935 1928 0
-1881 -1915 1937 0
-1915 -1935 1937 0
-1881 -1935 1937 0
1881 1915 -1937 0
1915 1935 -1937 0
1881 1935 -1937 0
1880 1914 -1940 0
-1880 -1914 -1940 0
-1880 1914 1940 0
1880 -1914 1940 0
1940 1937 -1927 0
-1940 -1937 -1927 0
-1940 1937 1927 0
1940 -1937 1927 0
-1880 -1914 1939 0
-1914 -1937 1939 0
-1880 -1937 1939 0
1880 1914 -1939 0
1914 1937 -1939 0
1880 1937 -1939 0
1879 1913 -1942 0
-1879 -1913 -1942 0
-1879 1913 1942 0
1879 -1913 1942 0
1942 1939 -1926 0
-1942 -1939 -1926 0
-1942 1939 1926 0
1942 -1939 1926 0
-1879 -1913 1941 0
-1913 -1939 1941 0
-1879 -1939 1941 0
1879 1913 -1941 0
1913 1939 -1941 0
1879 1939 -1941 0
1878 1912 -1944 0
-1878 -1912 -1944 0
-1878 1912 1944 0
1878 -1912 1944 0
1944 1941 -1925 0
-1944 -1941 -1925 0
-1944 1941 1925 0
1944 -1941 1925 0
-1878 -1912 1943 0
-1912 -1941 1943 0
-1878 -1941 1943 0
1878 1912 -1943 0
1912 1941 -1943 0
1878 1941 -1943 0
1877 1911 -1946 0
-1877 -1911 -1946 0
-1877 1911 1946 0
1877 -1911 1946 0
1946 1943 -1924 0
-1946 -1943 -1924 0
-1946 1943 1924 0
1946 -1943 1924 0
-1877 -1911 1945 0
-1911 -1943 1945 0
-1877 -1943 1945 0
1877 1911 -1945 0
1911 1943 -1945 0
1877 1943 -1945 0
1876 1910 -1948 0
-1876 -1910 -1948 0
-1876 1910 1948 0
1876 -1910 1948 0
1948 1945 -1923 0
-1948 -1945 -1923 0
-1948 1945 1923 0
1948 -1945 1923 0
-1876 -1910 1947 0
-1910 -1945 1947 0
-1876 -1945 1947 0
1876 1910 -1947 0
1910 1945 -1947 0
1876 1945 -1947 0
1875 1909 -1950 0
-1875 -1909 -1950 0
-1875 1909 1950 0
1875 -1909 1950 0
1950 1947 -1922 0
-1950 -1947 -1922 0
-1950 1947 1922 0
1950 -1947 1922 0
-1875 -1909 1949 0
-1909 -1947 1949 0
-1875 -1947 1949 0
1875 1909 -1949 0
1909 1947 -1949 0
1875 1947 -1949 0
1874 1908 -1952 0
-1874 -1908 -1952 0
-1874 1908 1952 0
1874 -1908 1952 0
1952 1949 -1921 0
-1952 -1949 -1921 0
-1952 1949 1921 0
1952 -1949 1921 0
-1874 -1908 1951 0
-1908 -1949 1951 0
-1874 -1949 1951 0
1874 1908 -1951 0
1908 1949 -1951 0
1874 1949 -1951 0
1873 1907 -1953 0
-1873 -1907 -1953 0
-1873 1907 1953 0
1873 -1907 1953 0
1953 1951 -1920 0
-1953 -1951 -1920 0
-1953 1951 1920 0
1953 -1951 1920 0
-1873 -1907 1919 0
-1907 -1951 1919 0
-1873 -1951 1919 0
1873 1907 -1919 0
1907 1951 -1919 0
1873 1951 -1919 0
1845 -1954 0
1837 -1954 0
-1845 -1837 1954 0
1845 -1955 0
1838 -1955 0
-1845 -1838 1955 0
1845 -1956 0
1839 -1956 0
-1845 -1839 1956 0
1845 -1957 0
1840 -1957 0
-1845 -1840 1957 0
1845 -1958 0
1841 -1958 0
-1845 -1841 1958 0
1845 -1959 0
1842 -1959 0
-1845 -1842 1959 0
1845 -1960 0
1843 -1960 0
-1845 -1843 1960 0
1845 -1961 0
1844 -1961 0
-1845 -1844 1961 0
1845 -1962 0
1845 -1962 0
-1845 -1845 1962 0
1845 -1963 0
1846 -1963 0
-1845 -1846 1963 0
1845 -1964 0
1847 -1964 0
-1845 -1847 1964 0
1845 -1965 0
1848 -1965 0
-1845 -1848 1965 0
1930 1965 -1978 0
-1930 -1965 -1978 0
-1930 1965 1978 0
1930 -1965 1978 0
1930 -1979 0
1965 -1979 0
-1930 -1965 1979 0
1929 1964 -1981 0
-1929 -1964 -1981 0
-1929 1964 1981 0
1929 -1964 1981 0
1981 1979 -1977 0
-1981 -1979 -1977 0
-1981 1979 1977 0
1981 -1979 1977 0
-1929 -1964 1980 0
-1964 -1979 1980 0
-1929 -1979 1980 0
1929 1964 -1980 0
1964 1979 -1980 0
1929 1979 -1980 0
1928 1963 -1983 0
-1928 -1963 -1983 0
-1928 1963 1983 0
1928 -1963 1983 0
1983 1980 -1976 0
-1983 -1980 -1976 0
-1983 1980 1976 0
1983 -1980 1976 0
-1928 -1963 1982 0
-1963 -1980 1982 0
-1928 -1980 1982 0
1928 1963 -1982 0
1963 1980 -1982 0
1928 1980 -1982 0
1927 1962 -1985 0
-1927 -1962 -1985 0
-1927 1962 1985 0
1927 -1962 1985 0
1985 1982 -1975 0
-1985 -1982 -1975 0
-1985 1982 1975 0
1985 -1982 1975 0
-1927 -1962 1984 0
-1962 -1982 1984 0
-1927 -1982 1984 0
1927 1962 -1984 0
1962 1982 -1984 0
1927 1982 -1984 0
1926 1961 -1987 0
-1926 -1961 -1987 0
-1926 1961 1987 0
1926 -1961 1987 0
1987 1984 -1974 0
-1987 -1984 -1974 0
-1987 1984 1974 0
1987 -1984 1974 0
-1926 -1961 1986 0
-1961 -1984 1986 0
-1926 -1984 1986 0
1926 1961 -1986 0
1961 1984 -1986 0
1926 1984 -1986 0
1925 1960 -1989 0
-1925 -1960 -1989 0
-1925 1960 1989 0
1925 -1960 1989 0
1989 1986 -1973 0
-1989 -1986 -1973 0
-1989 1986 1973 0
1989 -1986 1973 0
-1925 -1960 1988 0
-1960 -1986 1988 0
-1925 -1986 1988 0
1925 1960 -1988 0
1960 1986 -1988 0
1925 1986 -1988 0
1924 1959 -1991 0
-1924 -1959 -1991 0
-1924 1959 1991 0
1924 -1959 1991 0
1991 1988 -1972 0
-1991 -1988 -1972 0
-1991 1988 1972 0
1991 -1988 1972 0
-1924 -1959 1990 0
-1959 -1988 1990 0
-1924 -1988 1990 0
1924 1959 -1990 0
1959 1988 -1990 0
1924 1988 -1990 0
1923 1958 -1993 0
-1923 -1958 -1993 0
-1923 1958 1993 0
1923 -1958 1993 0
1993 1990 -1971 0
-1993 -1990 -1971 0
-1993 1990 1971 0
1993 -1990 1971 0
-1923 -1958 1992 0
-1958 -1990 1992 0
-1923 -1990 1992 0
1923 1958 -1992 0
1958 1990 -1992 0
1923 1990 -1992 0
1922 1957 -1995 0
-1922 -1957 -1995 0
-1922 1957 1995 0
1922 -1957 1995 0
1995 1992 -1970 0
-1995 -1992 -1970 0
-1995 1992 1970 0
1995 -1992 1970 0
-1922 -1957 1994 0
-1957 -1992 1994 0
-1922 -1992 1994 0
1922 1957 -1994 0
1957 1992 -1994 0
1922 1992 -1994 0
1921 1956 -1997 0
-1921 -1956 -1997 0
-1921 1956 1997 0
1921 -1956 1997 0
1997 1994 -1969 0
-1997 -1994 -1969 0
-1997 1994 1969 0
1997 -1994 1969 0
-1921 -1956 1996 0
-1956 -1994 1996 0
-1921 -1994 1996 0
1921 1956 -1996 0
1956 1994 -1996 0
1921 1994 -1996 0
1920 1955 -1999 0
-1920 -1955 -1999 0
-1920 1955 1999 0
1920 -1955 1999 0
1999 1996 -1968 0
-1999 -1996 -1968 0
-1999 1996 1968 0
1999 -1996 1968 0
-1920 -1955 1998 0
-1955 -1996 1998 0
-1920 -1996 1998 0
1920 1955 -1998 0
1955 1996 -1998 0
1920 1996 -1998 0
1919 1954 -2000 0
-1919 -1954 -2000 0
-1919 1954 2000 0
1919 -1954 2000 0
2000 1998 -1967 0
-2000 -1998 -1967 0
-2000 1998 1967 0
2000 -1998 1967 0
-1919 -1954 1966 0
-1954 -1998 1966 0
-1919 -1998 1966 0
1919 1954 -1966 0
1954 1998 -1966 0
1919 1998 -1966 0
1844 -2001 0
1837 -2001 0
-1844 -1837 2001 0
1844 -2002 0
1838 -2002 0
-1844 -1838 2002 0
1844 -2003 0
1839 -2003 0
-1844 -1839 2003 0
1844 -2004 0
1840 -2004 0
-1844 -1840 2004 0
1844 -2005 0
1841 -2005 0
-1844 -1841 2005 0
1844 -2006 0
1842 -2006 0
-1844 -1842 2006 0
1844 -2007 0
1843 -2007 0
-1844 -1843 2007 0
1844 -2008 0
1844 -2008 0
-1844 -1844 2008 0
1844 -2009 0
1845 -2009 0
-1844 -1845 2009 0
1844 -2010 0
1846 -2010 0
-1844 -1846 2010 0
1844 -2011 0
1847 -2011 0
-1844 -1847 2011 0
1844 -2012 0
1848 -2012 0
-1844 -1848 2012 0
1977 2012 -2025 0
-1977 -2012 -2025 0
-1977 2012 2025 0
1977 -2012 2025 0
1977 -2026 0
2012 -2026 0
-1977 -2012 2026 0
1976 2011 -2028 0
-1976 -2011 -2028 0
-1976 2011 2028 0
1976 -2011 2028 0
2028 2026 -2024 0
-2028 -2026 -2024 0
-2028 2026 2024 0
2028 -2026 2024 0
-1976 -2011 2027 0
-2011 -2026 2027 0
-1976 -2026 2027 0
1976 2011 -2027 0
2011 2026 -2027 0
1976 2026 -2027 0
1975 2010 -2030 0
-1975 -2010 -2030 0
-1975 2010 2030 0
1975 -2010 2030 0
2030 2027 -2023 0
-2030 -2027 -2023 0
-2030 2027 2023 0
2030 -2027 2023 0
-1975 -2010 2029 0
-2010 -2027 2029 0
-1975 -2027 2029 0
1975 2010 -2029 0
2010 2027 -2029 0
1975 2027 -2029 0
1974 2009 -2032 0
-1974 -2009 -2032 0
-1974 2009 2032 0
1974 -2009 2032 0
2032 2029 -2022 0
-2032 -2029 -2022 0
-2032 2029 2022 0
2032 -2029 2022 0
-1974 -2009 2031 0
-2009 -2029 2031 0
-1974 -2029 2031 0
1974 2009 -2031 0
2009 2029 -2031 0
1974 2029 -2031 0
1973 2008 -2034 0
-1973 -2008 -2034 0
-1973 2008 2034 0
1973 -2008 2034 0
2034 2031 -2021 0
-2034 -2031 -2021 0
-2034 2031 2021 0
2034 -2031 2021 0
-1973 -2008 2033 0
-2008 -2031 2033 0
-1973 -2031 2033 0
1973 2008 -2033 0
2008 2031 -2033 0
1973 2031 -2033 0
1972 2007 -2036 0
-1972 -2007 -2036 0
-1972 2007 2036 0
1972 -2007 2036 0
2036 2033 -2020 0
-2036 -2033 -2020 0
-2036 2033 2020 0
2036 -2033 2020 0
-1972 -2007 2035 0
-2007 -2033 2035 0
-1972 -2033 2035 0
1972 2007 -2035 0
2007 2033 -2035 0
1972 2033 -2035 0
1971 2006 -2038 0
-1971 -2006 -2038 0
-1971 2006 2038 0
1971 -2006 2038 0
2038 2035 -2019 0
-2038 -2035 -2019 0
-2038 2035 2019 0
2038 -2035 2019 0
-1971 -2006 2037 0
-2006 -2035 2037 0
-1971 -2035 2037 0
1971 2006 -2037 0
2006 2035 -2037 0
1971 2035 -2037 0
1970 2005 -2040 0
-1970 -2005 -2040 0
-1970 2005 2040 0
1970 -2005 2040 0
2040 2037 -2018 0
-2040 -2037 -2018 0
-2040 2037 2018 0
2040 -2037 2018 0
-1970 -2005 2039 0
-2005 -2037 2039 0
-1970 -2037 2039 0
1970 2005 -2039 0
2005 2037 -2039 0
1970 2037 -2039 0
1969 2004 -2042 0
-1969 -2004 -2042 0
-1969 2004 2042 0
1969 -2004 2042 0
2042 2039 -2017 0
-2042 -2039 -2017 0
-2042 2039 2017 0
2042 -2039 2017 0
-1969 -2004 2041 0
-2004 -2039 2041 0
-1969 -2039 2041 0
1969 2004 -2041 0
2004 2039 -2041 0
1969 2039 -2041 0
1968 2003 -2044 0
-1968 -2003 -2044 0
-1968 2003 2044 0
1968 -2003 2044 0
2044 2041 -2016 0
-2044 -2041 -2016 0
-2044 2041 2016 0
2044 -2041 2016 0
-1968 -2003 2043 0
-2003 -2041 2043 0
-1968 -2041 2043 0
1968 2003 -2043 0
2003 2041 -2043 0
1968 2041 -2043 0
1967 2002 -2046 0
-1967 -2002 -2046 0
-1967 2002 2046 0
1967 -2002 2046 0
2046 2043 -2015 0
-2046 -2043 -2015 0
-2046 2043 2015 0
2046 -2043 2015 0
-1967 -2002 2045 0
-2002 -2043 2045 0
-1967 -2043 2045 0
1967 2002 -2045 0
2002 2043 -2045 0
1967 2043 -2045 0
1966 2001 -2047 0
-1966 -2001 -2047 0
-1966 2001 2047 0
1966 -2001 2047 0
2047 2045 -2014 0
-2047 -2045 -2014 0
-2047 2045 2014 0
2047 -2045 2014 0
-1966 -2001 2013 0
-2001 -2045 2013 0
-1966 -2045 2013 0
1966 2001 -2013 0
2001 2045 -2013 0
1966 2045 -2013 0
1843 -2048 0
1837 -2048 0
-1843 -1837 2048 0
1843 -2049 0
1838 -2049 0
-1843 -1838 2049 0
1843 -2050 0
1839 -2050 0
-1843 -1839 2050 0
1843 -2051 0
1840 -2051 0
-1843 -1840 2051 0
1843 -2052 0
1841 -2052 0
-1843 -1841 2052 0
1843 -2053 0
1842 -2053 0
-1843 -1842 2053 0
1843 -2054 0
1843 -2054 0
-1843 -1843 2054 0
1843 -2055 0
1844 -2055 0
-1843 -1844 2055 0
1843 -2056 0
1845 -2056 0
-1843 -1845 2056 0
1843 -2057 0
1846 -2057 0
-1843 -1846 2057 0
1843 -2058 0
1847 -2058 0
-1843 -1847 2058 0
1843 -2059 0
1848 -2059 0
-1843 -1848 2059 0
2024 2059 -2072 0
-2024 -2059 -2072 0
-2024 2059 2072 0
2024 -2059 2072 0
2024 -2073 0
2059 -2073 0
-2024 -2059 2073 0
2023 2058 -2075 0
-2023 -2058 -2075 0
-2023 2058 2075 0
2023 -2058 2075 0
2075 2073 -2071 0
-2075 -2073 -2071 0
-2075 2073 2071 0
2075 -2073 2071 0
-2023 -2058 2074 0
-2058 -2073 2074 0
-2023 -2073 2074 0
2023 2058 -2074 0
2058 2073 -2074 0
2023 2073 -2074 0
2022 2057 -2077 0
-2022 -2057 -2077 0
-2022 2057 2077 0
2022 -2057 2077 0
2077 2074 -2070 0
-2077 -2074 -2070 0
-2077 2074 2070 0
2077 -2074 2070 0
-2022 -2057 2076 0
-2057 -2074 2076 0
-2022 -2074 2076 0
2022 2057 -2076 0
2057 2074 -2076 0
2022 2074 -2076 0
2021 2056 -2079 0
-2021 -2056 -2079 0
-2021 2056 2079 0
2021 -2056 2079 0
2079 2076 -2069 0
-2079 -2076 -2069 0
-2079 2076 2069 0
2079 -2076 2069 0
-2021 -2056 2078 0
-2056 -2076 2078 0
-2021 -2076 2078 0
2021 2056 -2078 0
2056 2076 -2078 0
2021 2076 -2078 0
2020 2055 -2081 0
-2020 -2055 -2081 0
-2020 2055 2081 0
2020 -2055 2081 0
2081 2078 -2068 0
-2081 -2078 -2068 0
-2081 2078 2068 0
2081 -2078 2068 0
-2020 -2055 2080 0
-2055 -2078 2080 0
-2020 -2078 2080 0
2020 2055 -2080 0
2055 2078 -2080 0
2020 2078 -2080 0
2019 2054 -2083 0
-2019 -2054 -2083 0
-2019 2054 2083 0
2019 -2054 2083 0
2083 2080 -2067 0
-2083 -2080 -2067 0
-2083 2080 2067 0
2083 -2080 2067 0
-2019 -2054 2082 0
-2054 -2080 2082 0
-2019 -2080 2082 0
2019 2054 -2082 0
2054 2080 -2082 0
2019 2080 -2082 0
2018 2053 -2085 0
-2018 -2053 -2085 0
-2018 2053 2085 0
2018 -2053 2085 0
2085 2082 -2066 0
-2085 -2082 -2066 0
-2085 2082 2066 0
2085 -2082 2066 0
-2018 -2053 2084 0
-2053 -2082 2084 0
-2018 -2082 2084 0
2018 2053 -2084 0
2053 2082 -2084 0
2018 2082 -2084 0
2017 2052 -2087 0
-2017 -2052 -2087 0
-2017 2052 2087 0
2017 -2052 2087 0
2087 2084 -2065 0
-2087 -2084 -2065 0
-2087 2084 2065 0
2087 -2084 2065 0
-2017 -2052 2086 0
-2052 -2084 2086 0
-2017 -2084 2086 0
2017 2052 -2086 0
2052 2084 -2086 0
2017 2084 -2086 0
2016 2051 -2089 0
-2016 -2051 -2089 0
-2016 2051 2089 0
2016 -2051 2089 0
2089 2086 -2064 0
-2089 -2086 -2064 0
-2089 2086 2064 0
2089 -2086 2064 0
-2016 -2051 2088 0
-2051 -2086 2088 0
-2016 -2086 2088 0
2016 2051 -2088 0
2051 2086 -2088 0
2016 2086 -2088 0
2015 2050 -2091 0
-2015 -2050 -2091 0
-2015 2050 2091 0
2015 -2050 2091 0
2091 2088 -2063 0
-2091 -2088 -2063 0
-2091 2088 2063 0
2091 -2088 2063 0
-2015 -2050 2090 0
-2050 -2088 2090 0
-2015 -2088 2090 0
2015 2050 -2090 0
2050 2088 -2090 0
2015 2088 -2090 0
2014 2049 -2093 0
-2014 -2049 -2093 0
-2014 2049 2093 0
2014 -2049 2093 0
2093 2090 -2062 0
-2093 -2090 -2062 0
-2093 2090 2062 0
2093 -2090 2062 0
-2014 -2049 2092 0
-2049 -2090 2092 0
-2014 -2090 2092 0
2014 2049 -2092 0
2049 2090 -2092 0
2014 2090 -2092 0
2013 2048 -2094 0
-2013 -2048 -2094 0
-2013 2048 2094 0
2013 -2048 2094 0
2094 2092 -2061 0
-2094 -2092 -2061 0
-2094 2092 2061 0
2094 -2092 2061 0
-2013 -2048 2060 0
-2048 -2092 2060 0
-2013 -2092 2060 0
2013 2048 -2060 0
2048 2092 -2060 0
2013 2092 -2060 0
1842 -2095 0
1837 -2095 0
-1842 -1837 2095 0
1842 -2096 0
1838 -2096 0
-1842 -1838 2096 0
1842 -2097 0
1839 -2097 0
-1842 -1839 2097 0
1842 -2098 0
1840 -2098 0
-1842 -1840 2098 0
1842 -2099 0
1841 -2099 0
-1842 -1841 2099 0
1842 -2100 0
1842 -2100 0
-1842 -1842 2100 0
1842 -2101 0
1843 -2101 0
-1842 -1843 2101 0
1842 -2102 0
1844 -2102 0
-1842 -1844 2102 0
1842 -2103 0
1845 -2103 0
-1842 -1845 2103 0
1842 -2104 0
1846 -2104 0
-1842 -1846 2104 0
1842 -2105 0
1847 -2105 0
-1842 -1847 2105 0
1842 -2106 0
1848 -2106 0
-1842 -1848 2106 0
2071 2106 -2119 0
-2071 -2106 -2119 0
-2071 2106 2119 0
2071 -2106 2119 0
2071 -2120 0
2106 -2120 0
-2071 -2106 2120 0
2070 2105 -2122 0
-2070 -2105 -2122 0
-2070 2105 2122 0
2070 -2105 2122 0
2122 2120 -2118 0
-2122 -2120 -2118 0
-2122 2120 2118 0
2122 -2120 2118 0
-2070 -2105 2121 0
-2105 -2120 2121 0
-2070 -2120 2121 0
2070 2105 -2121 0
2105 2120 -2121 0
2070 2120 -2121 0
2069 2104 -2124 0
-2069 -2104 -2124 0
-2069 2104 2124 0
2069 -2104 2124 0
2124 2121 -2117 0
-2124 -2121 -2117 0
-2124 2121 2117 0
2124 -2121 2117 0
-2069 -2104 2123 0
-2104 -2121 2123 0
-2069 -2121 2123 0
2069 2104 -2123 0
2104 2121 -2123 0
2069 2121 -2123 0
2068 2103 -2126 0
-2068 -2103 -2126 0
-2068 2103 2126 0
2068 -2103 2126 0
2126 2123 -2116 0
-2126 -2123 -2116 0
-2126 2123 2116 0
2126 -2123 2116 0
-2068 -2103 2125 0
-2103 -2123 2125 0
-2068 -2123 2125 0
2068 2103 -2125 0
2103 2123 -2125 0
2068 2123 -2125 0
2067 2102 -2128 0
-2067 -2102 -2128 0
-2067 2102 2128 0
2067 -2102 2128 0
2128 2125 -2115 0
-2128 -2125 -2115 0
-2128 2125 2115 0
2128 -2125 2115 0
-2067 -2102 2127 0
-2102 -2125 2127 0
-2067 -2125 2127 0
2067 2102 -2127 0
2102 2125 -2127 0
2067 2125 -2127 0
2066 2101 -2130 0
-2066 -2101 -2130 0
-2066 2101 2130 0
2066 -2101 2130 0
2130 2127 -2114 0
-2130 -2127 -2114 0
-2130 2127 2114 0
2130 -2127 2114 0
-2066 -2101 2129 0
-2101 -2127 2129 0
-2066 -2127 2129 0
2066 2101 -2129 0
2101 2127 -2129 0
2066 2127 -2129 0
2065 2100 -2132 0
-2065 -2100 -2132 0
-2065 2100 2132 0
2065 -2100 2132 0
2132 2129 -2113 0
-2132 -2129 -2113 0
-2132 2129 2113 0
2132 -2129 2113 0
-2065 -2100 2131 0
-2100 -2129 2131 0
-2065 -2129 2131 0
2065 2100 -2131 0
2100 2129 -2131 0
2065 2129 -2131 0
2064 2099 -2134 0
-2064 -2099 -2134 0
-2064 2099 2134 0
2064 -2099 2134 0
2134 2131 -2112 0
-2134 -2131 -2112 0
-2134 2131 2112 0
2134 -2131 2112 0
-2064 -2099 2133 0
-2099 -2131 2133 0
-2064 -2131 2133 0
2064 2099 -2133 0
2099 2131 -2133 0
2064 2131 -2133 0
2063 2098 -2136 0
-2063 -2098 -2136 0
-2063 2098 2136 0
2063 -2098 2136 0
2136 2133 -2111 0
-2136 -2133 -2111 0
-2136 2133 2111 0
2136 -2133 2111 0
-2063 -2098 2135 0
-2098 -2133 2135 0
-2063 -2133 2135 0
2063 2098 -2135 0
2098 2133 -2135 0
2063 2133 -2135 0
2062 2097 -2138 0
-2062 -2097 -2138 0
-2062 2097 2138 0
2062 -2097 2138 0
2138 2135 -2110 0
-2138 -2135 -2110 0
-2138 2135 2110 0
2138 -2135 2110 0
-2062 -2097 2137 0
-2097 -2135 2137 0
-2062 -2135 2137 0
2062 2097 -2137 0
2097 2135 -2137 0
2062 2135 -2137 0
2061 2096 -2140 0
-2061 -2096 -2140 0
-2061 2096 2140 0
2061 -2096 2140 0
2140 2137 -2109 0
-2140 -2137 -2109 0
-2140 2137 2109 0
2140 -2137 2109 0
-2061 -2096 2139 0
-2096 -2137 2139 0
-2061 -2137 2139 0
2061 2096 -2139 0
2096 2137 -2139 0
2061 2137 -2139 0
2060 2095 -2141 0
-2060 -2095 -2141 0
-2060 2095 2141 0
2060 -2095 2141 0
2141 2139 -2108 0
-2141 -2139 -2108 0
-2141 2139 2108 0
2141 -2139 2108 0
-2060 -2095 2107 0
-2095 -2139 2107 0
-2060 -2139 2107 0
2060 2095 -2107 0
2095 2139 -2107 0
2060 2139 -2107 0
1841 -2142 0
1837 -2142 0
-1841 -1837 2142 0
1841 -2143 0
1838 -2143 0
-1841 -1838 2143 0
1841 -2144 0
1839 -2144 0
-1841 -1839 2144 0
1841 -2145 0
1840 -2145 0
-1841 -1840 2145 0
1841 -2146 0
1841 -2146 0
-1841 -1841 2146 0
1841 -2147 0
1842 -2147 0
-1841 -1842 2147 0
1841 -2148 0
1843 -2148 0
-1841 -1843 2148 0
1841 -2149 0
1844 -2149 0
-1841 -1844 2149 0
1841 -2150 0
1845 -2150 0
-1841 -1845 2150 0
1841 -2151 0
1846 -2151 0
-1841 -1846 2151 0
1841 -2152 0
1847 -2152 0
-1841 -1847 2152 0
1841 -2153 0
1848 -2153 0
-1841 -1848 2153 0
2118 2153 -2166 0
-2118 -2153 -2166 0
-2118 2153 2166 0
2118 -2153 2166 0
2118 -2167 0
2153 -2167 0
-2118 -2153 2167 0
2117 2152 -2169 0
-2117 -2152 -2169 0
-2117 2152 2169 0
2117 -2152 2169 0
2169 2167 -2165 0
-2169 -2167 -2165 0
-2169 2167 2165 0
2169 -2167 2165 0
-2117 -2152 2168 0
-2152 -2167 2168 0
-2117 -2167 2168 0
2117 2152 -2168 0
2152 2167 -2168 0
2117 2167 -2168 0
2116 2151 -2171 0
-2116 -2151 -2171 0
-2116 2151 2171 0
2116 -2151 2171 0
2171 2168 -2164 0
-2171 -2168 -2164 0
-2171 2168 2164 0
2171 -2168 2164 0
-2116 -2151 2170 0
-2151 -2168 2170 0
-2116 -2168 2170 0
2116 2151 -2170 0
2151 2168 -2170 0
2116 2168 -2170 0
2115 2150 -2173 0
-2115 -2150 -2173 0
-2115 2150 2173 0
2115 -2150 2173 0
2173 2170 -2163 0
-2173 -2170 -2163 0
-2173 2170 2163 0
2173 -2170 2163 0
-2115 -2150 2172 0
-2150 -2170 2172 0
-2115 -2170 2172 0
2115 2150 -2172 0
2150 2170 -2172 0
2115 2170 -2172 0
2114 2149 -2175 0
-2114 -2149 -2175 0
-2114 2149 2175 0
2114 -2149 2175 0
2175 2172 -2162 0
-2175 -2172 -2162 0
-2175 2172 2162 0
2175 -2172 2162 0
-2114 -2149 2174 0
-2149 -2172 2174 0
-2114 -2172 2174 0
2114 2149 -2174 0
2149 2172 -2174 0
2114 2172 -2174 0
2113 2148 -2177 0
-2113 -2148 -2177 0
-2113 2148 2177 0
2113 -2148 2177 0
2177 2174 -2161 0
-2177 -2174 -2161 0
-2177 2174 2161 0
2177 -2174 2161 0
-2113 -2148 2176 0
-2148 -2174 2176 0
-2113 -2174 2176 0
2113 2148 -2176 0
2148 2174 -2176 0
2113 2174 -2176 0
2112 2147 -2179 0
-2112 -2147 -2179 0
-2112 2147 2179 0
2112 -2147 2179 0
2179 2176 -2160 0
-2179 -2176 -2160 0
-2179 2176 2160 0
2179 -2176 2160 0
-2112 -2147 2178 0
-2147 -2176 2178 0
-2112 -2176 2178 0
2112 2147 -2178 0
2147 2176 -2178 0
2112 2176 -2178 0
2111 2146 -2181 0
-2111 -2146 -2181 0
-2111 2146 2181 0
2111 -2146 2181 0
2181 2178 -2159 0
-2181 -2178 -2159 0
-2181 2178 2159 0
2181 -2178 2159 0
-2111 -2146 2180 0
-2146 -2178 2180 0
-2111 -2178 2180 0
2111 2146 -2180 0
2146 2178 -2180 0
2111 2178 -2180 0
2110 2145 -2183 0
-2110 -2145 -2183 0
-2110 2145 2183 0
2110 -2145 2183 0
2183 2180 -2158 0
-2183 -2180 -2158 0
-2183 2180 2158 0
2183 -2180 2158 0
-2110 -2145 2182 0
-2145 -2180 2182 0
-2110 -2180 2182 0
2110 2145 -2182 0
2145 2180 -2182 0
2110 2180 -2182 0
2109 2144 -2185 0
-2109 -2144 -2185 0
-2109 2144 2185 0
2109 -2144 2185 0
2185 2182 -2157 0
-2185 -2182 -2157 0
-2185 2182 2157 0
2185 -2182 2157 0
-2109 -2144 2184 0
-2144 -2182 2184 0
-2109 -2182 2184 0
2109 2144 -2184 0
2144 2182 -2184 0
2109 2182 -2184 0
2108 2143 -2187 0
-2108 -2143 -2187 0
-2108 2143 2187 0
2108 -2143 2187 0
2187 2184 -2156 0
-2187 -2184 -2156 0
-2187 2184 2156 0
2187 -2184 2156 0
-2108 -2143 2186 0
-2143 -2184 2186 0
-2108 -2184 2186 0
2108 2143 -2186 0
2143 2184 -2186 0
2108 2184 -2186 0
2107 2142 -2188 0
-2107 -2142 -2188 0
-2107 2142 2188 0
2107 -2142 2188 0
2188 2186 -2155 0
-2188 -2186 -2155 0
-2188 2186 2155 0
2188 -2186 2155 0
-2107 -2142 2154 0
-2142 -2186 2154 0
-2107 -2186 2154 0
2107 2142 -2154 0
2142 2186 -2154 0
2107 2186 -2154 0
1840 -2189 0
1837 -2189 0
-1840 -1837 2189 0
1840 -2190 0
1838 -2190 0
-1840 -1838 2190 0
1840 -2191 0
1839 -2191 0
-1840 -1839 2191 0
1840 -2192 0
1840 -2192 0
-1840 -1840 2192 0
1840 -2193 0
1841 -2193 0
-1840 -1841 2193 0
1840 -2194 0
1842 -2194 0
-1840 -1842 2194 0
1840 -2195 0
1843 -2195 0
-1840 -1843 2195 0
1840 -2196 0
1844 -2196 0
-1840 -1844 2196 0
1840 -2197 0
1845 -2197 0
-1840 -1845 2197 0
1840 -2198 0
1846 -2198 0
-1840 -1846 2198 0
1840 -2199 0
1847 -2199 0
-1840 -1847 2199 0
1840 -2200 0
1848 -2200 0
-1840 -1848 2200 0
2165 2200 -2213 0
-2165 -2200 -2213 0
-2165 2200 2213 0
2165 -2200 2213 0
2165 -2214 0
2200 -2214 0
-2165 -2200 2214 0
2164 2199 -2216 0
-2164 -2199 -2216 0
-2164 2199 2216 0
2164 -2199 2216 0
2216 2214 -2212 0
-2216 -2214 -2212 0
-2216 2214 2212 0
2216 -2214 2212 0
-2164 -2199 2215 0
-2199 -2214 2215 0
-2164 -2214 2215 0
2164 2199 -2215 0
2199 2214 -2215 0
2164 2214 -2215 0
2163 2198 -2218 0
-2163 -2198 -2218 0
-2163 2198 2218 0
2163 -2198 2218 0
2218 2215 -2211 0
-2218 -2215 -2211 0
-2218 2215 2211 0
2218 -2215 2211 0
-2163 -2198 2217 0
-2198 -2215 2217 0
-2163 -2215 2217 0
2163 2198 -2217 0
2198 2215 -2217 0
2163 2215 -2217 0
2162 2197 -2220 0
-2162 -2197 -2220 0
-2162 2197 2220 0
2162 -2197 2220 0
2220 2217 -2210 0
-2220 -2217 -2210 0
-2220 2217 2210 0
2220 -2217 2210 0
-2162 -2197 2219 0
-2197 -2217 2219 0
-2162 -2217 2219 0
2162 2197 -2219 0
2197 2217 -2219 0
2162 2217 -2219 0
2161 2196 -2222 0
-2161 -2196 -2222 0
-2161 2196 2222 0
2161 -2196 2222 0
2222 2219 -2209 0
-2222 -2219 -2209 0
-2222 2219 2209 0
2222 -2219 2209 0
-2161 -2196 2221 0
-2196 -2219 2221 0
-2161 -2219 2221 0
2161 2196 -2221 0
2196 2219 -2221 0
2161 2219 -2221 0
2160 2195 -2224 0
-2160 -2195 -2224 0
-2160 2195 2224 0
2160 -2195 2224 0
2224 2221 -2208 0
-2224 -2221 -2208 0
-2224 2221 2208 0
2224 -2221 2208 0
-2160 -2195 2223 0
-2195 -2221 2223 0
-2160 -2221 2223 0
2160 2195 -2223 0
2195 2221 -2223 0
2160 2221 -2223 0
2159 2194 -2226 0
-2159 -2194 -2226 0
-2159 2194 2226 0
2159 -2194 2226 0
2226 2223 -2207 0
-2226 -2223 -2207 0
-2226 2223 2207 0
2226 -2223 2207 0
-2159 -2194 2225 0
-2194 -2223 2225 0
-2159 -2223 2225 0
2159 2194 -2225 0
2194 2223 -2225 0
2159 2223 -2225 0
2158 2193 -2228 0
-2158 -2193 -2228 0
-2158 2193 2228 0
2158 -2193 2228 0
2228 2225 -2206 0
-2228 -2225 -2206 0
-2228 2225 2206 0
2228 -2225 2206 0
-2158 -2193 2227 0
-2193 -2225 2227 0
-2158 -2225 2227 0
2158 2193 -2227 0
2193 2225 -2227 0
2158 2225 -2227 0
2157 2192 -2230 0
-2157 -2192 -2230 0
-2157 2192 2230 0
2157 -2192 2230 0
2230 2227 -2205 0
-2230 -2227 -2205 0
-2230 2227 2205 0
2230 -2227 2205 0
-2157 -2192 2229 0
-2192 -2227 2229 0
-2157 -2227 2229 0
2157 2192 -2229 0
2192 2227 -2229 0
2157 2227 -2229 0
2156 2191 -2232 0
-2156 -2191 -2232 0
-2156 2191 2232 0
2156 -2191 2232 0
2232 2229 -2204 0
-2232 -2229 -2204 0
-2232 2229 2204 0
2232 -2229 2204 0
-2156 -2191 2231 0
-2191 -2229 2231 0
-2156 -2229 2231 0
2156 2191 -2231 0
2191 2229 -2231 0
2156 2229 -2231 0
2155 2190 -2234 0
-2155 -2190 -2234 0
-2155 2190 2234 0
2155 -2190 2234 0
2234 2231 -2203 0
-2234 -2231 -2203 0
-2234 2231 2203 0
2234 -2231 2203 0
-2155 -2190 2233 0
-2190 -2231 2233 0
-2155 -2231 2233 0
2155 2190 -2233 0
2190 2231 -2233 0
2155 2231 -2233 0
2154 2189 -2235 0
-2154 -2189 -2235 0
-2154 2189 2235 0
2154 -2189 2235 0
2235 2233 -2202 0
-2235 -2233 -2202 0
-2235 2233 2202 0
2235 -2233 2202 0
-2154 -2189 2201 0
-2189 -2233 2201 0
-2154 -2233 2201 0
2154 2189 -2201 0
2189 2233 -2201 0
2154 2233 -2201 0
1839 -2236 0
1837 -2236 0
-1839 -1837 2236 0
1839 -2237 0
1838 -2237 0
-1839 -1838 2237 0
1839 -2238 0
1839 -2238 0
-1839 -1839 2238 0
1839 -2239 0
1840 -2239 0
-1839 -1840 2239 0
1839 -2240 0
1841 -2240 0
-1839 -1841 2240 0
1839 -2241 0
1842 -2241 0
-1839 -1842 2241 0
1839 -2242 0
1843 -2242 0
-1839 -1843 2242 0
1839 -2243 0
1844 -2243 0
-1839 -1844 2243 0
1839 -2244 0
1845 -2244 0
-1839 -1845 2244 0
1839 -2245 0
1846 -2245 0
-1839 -1846 2245 0
1839 -2246 0
1847 -2246 0
-1839 -1847 2246 0
1839 -2247 0
1848 -2247 0
-1839 -1848 2247 0
2212 2247 -2260 0
-2212 -2247 -2260 0
-2212 2247 2260 0
2212 -2247 2260 0
2212 -2261 0
2247 -2261 0
-2212 -2247 2261 0
2211 2246 -2263 0
-2211 -2246 -2263 0
-2211 2246 2263 0
2211 -2246 2263 0
2263 2261 -2259 0
-2263 -2261 -2259 0
-2263 2261 2259 0
2263 -2261 2259 0
-2211 -2246 2262 0
-2246 -2261 2262 0
-2211 -2261 2262 0
2211 2246 -2262 0
2246 2261 -2262 0
2211 2261 -2262 0
2210 2245 -2265 0
-2210 -2245 -2265 0
-2210 2245 2265 0
2210 -2245 2265 0
2265 2262 -2258 0
-2265 -2262 -2258 0
-2265 2262 2258 0
2265 -2262 2258 0
-2210 -2245 2264 0
-2245 -2262 2264 0
-2210 -2262 2264 0
2210 2245 -2264 0
2245 2262 -2264 0
2210 2262 -2264 0
2209 2244 -2267 0
-2209 -2244 -2267 0
-2209 2244 2267 0
2209 -2244 2267 0
2267 2264 -2257 0
-2267 -2264 -2257 0
-2267 2264 2257 0
2267 -2264 2257 0
-2209 -2244 2266 0
-2244 -2264 2266 0
-2209 -2264 2266 0
2209 2244 -2266 0
2244 2264 -2266 0
2209 2264 -2266 0
2208 2243 -2269 0
-2208 -2243 -2269 0
-2208 2243 2269 0
2208 -2243 2269 0
2269 2266 -2256 0
-2269 -2266 -2256 0
-2269 2266 2256 0
2269 -2266 2256 0
-2208 -2243 2268 0
-2243 -2266 2268 0
-2208 -2266 2268 0
2208 2243 -2268 0
2243 2266 -2268 0
2208 2266 -2268 0
2207 2242 -2271 0
-2207 -2242 -2271 0
-2207 2242 2271 0
2207 -2242 2271 0
2271 2268 -2255 0
-2271 -2268 -2255 0
-2271 2268 2255 0
2271 -2268 2255 0
-2207 -2242 2270 0
-2242 -2268 2270 0
-2207 -2268 2270 0
2207 2242 -2270 0
2242 2268 -2270 0
2207 2268 -2270 0
2206 2241 -2273 0
-2206 -2241 -2273 0
-2206 2241 2273 0
2206 -2241 2273 0
2273 2270 -2254 0
-2273 -2270 -2254 0
-2273 2270 2254 0
2273 -2270 2254 0
-2206 -2241 2272 0
-2241 -2270 2272 0
-2206 -2270 2272 0
2206 2241 -2272 0
2241 2270 -2272 0
2206 2270 -2272 0
2205 2240 -2275 0
-2205 -2240 -2275 0
-2205 2240 2275 0
2205 -2240 2275 0
2275 2272 -2253 0
-2275 -2272 -2253 0
-2275 2272 2253 0
2275 -2272 2253 0
-2205 -2240 2274 0
-2240 -2272 2274 0
-2205 -2272 2274 0
2205 2240 -2274 0
2240 2272 -2274 0
2205 2272 -2274 0
2204 2239 -2277 0
-2204 -2239 -2277 0
-2204 2239 2277 0
2204 -2239 2277 0
2277 2274 -2252 0
-2277 -2274 -2252 0
-2277 2274 2252 0
2277 -2274 2252 0
-2204 -2239 2276 0
-2239 -2274 2276 0
-2204 -2274 2276 0
2204 2239 -2276 0
2239 2274 -2276 0
2204 2274 -2276 0
2203 2238 -2279 0
-2203 -2238 -2279 0
-2203 2238 2279 0
2203 -2238 2279 0
2279 2276 -2251 0
-2279 -2276 -2251 0
-2279 2276 2251 0
2279 -2276 2251 0
-2203 -2238 2278 0
-2238 -2276 2278 0
-2203 -2276 2278 0
2203 2238 -2278 0
2238 2276 -2278 0
2203 2276 -2278 0
2202 2237 -2281 0
-2202 -2237 -2281 0
-2202 2237 2281 0
2202 -2237 2281 0
2281 2278 -2250 0
-2281 -2278 -2250 0
-2281 2278 2250 0
2281 -2278 2250 0
-2202 -2237 2280 0
-2237 -2278 2280 0
-2202 -2278 2280 0
2202 2237 -2280 0
2237 2278 -2280 0
2202 2278 -2280 0
2201 2236 -2282 0
-2201 -2236 -2282 0
-2201 2236 2282 0
2201 -2236 2282 0
2282 2280 -2249 0
-2282 -2280 -2249 0
-2282 2280 2249 0
2282 -2280 2249 0
-2201 -2236 2248 0
-2236 -2280 2248 0
-2201 -2280 2248 0
2201 2236 -2248 0
2236 2280 -2248 0
2201 2280 -2248 0
1838 -2283 0
1837 -2283 0
-1838 -1837 2283 0
1838 -2284 0
1838 -2284 0
-1838 -1838 2284 0
1838 -2285 0
1839 -2285 0
-1838 -1839 2285 0
1838 -2286 0
1840 -2286 0
-1838 -1840 2286 0
1838 -2287 0
1841 -2287 0
-1838 -1841 2287 0
1838 -2288 0
1842 -2288 0
-1838 -1842 2288 0
1838 -2289 0
1843 -2289 0
-1838 -1843 2289 0
1838 -2290 0
1844 -2290 0
-1838 -1844 2290 0
1838 -2291 0
1845 -2291 0
-1838 -1845 2291 0
1838 -2292 0
1846 -2292 0
-1838 -1846 2292 0
1838 -2293 0
1847 -2293 0
-1838 -1847 2293 0
1838 -2294 0
1848 -2294 0
-1838 -1848 2294 0
2259 2294 -2307 0
-2259 -2294 -2307 0
-2259 2294 2307 0
2259 -2294 2307 0
2259 -2308 0
2294 -2308 0
-2259 -2294 2308 0
2258 2293 -2310 0
-2258 -2293 -2310 0
-2258 2293 2310 0
2258 -2293 2310 0
2310 2308 -2306 0
-2310 -2308 -2306 0
-2310 2308 2306 0
2310 -2308 2306 0
-2258 -2293 2309 0
-2293 -2308 2309 0
-2258 -2308 2309 0
2258 2293 -2309 0
2293 2308 -2309 0
2258 2308 -2309 0
2257 2292 -2312 0
-2257 -2292 -2312 0
-2257 2292 2312 0
2257 -2292 2312 0
2312 2309 -2305 0
-2312 -2309 -2305 0
-2312 2309 2305 0
2312 -2309 2305 0
-2257 -2292 2311 0
-2292 -2309 2311 0
-2257 -2309 2311 0
2257 2292 -2311 0
2292 2309 -2311 0
2257 2309 -2311 0
2256 2291 -2314 0
-2256 -2291 -2314 0
-2256 2291 2314 0
2256 -2291 2314 0
2314 2311 -2304 0
-2314 -2311 -2304 0
-2314 2311 2304 0
2314 -2311 2304 0
-2256 -2291 2313 0
-2291 -2311 2313 0
-2256 -2311 2313 0
2256 2291 -2313 0
2291 2311 -2313 0
2256 2311 -2313 0
2255 2290 -2316 0
-2255 -2290 -2316 0
-2255 2290 2316 0
2255 -2290 2316 0
2316 2313 -2303 0
-2316 -2313 -2303 0
-2316 2313 2303 0
2316 -2313 2303 0
-2255 -2290 2315 0
-2290 -2313 2315 0
-2255 -2313 2315 0
2255 2290 -2315 0
2290 2313 -2315 0
2255 2313 -2315 0
2254 2289 -2318 0
-2254 -2289 -2318 0
-2254 2289 2318 0
2254 -2289 2318 0
2318 2315 -2302 0
-2318 -2315 -2302 0
-2318 2315 2302 0
2318 -2315 2302 0
-2254 -2289 2317 0
-2289 -2315 2317 0
-2254 -2315 2317 0
2254 2289 -2317 0
2289 2315 -2317 0
2254 2315 -2317 0
2253 2288 -2320 0
-2253 -2288 -2320 0
-2253 2288 2320 0
2253 -2288 2320 0
2320 2317 -2301 0
-2320 -2317 -2301 0
-2320 2317 2301 0
2320 -2317 2301 0
-2253 -2288 2319 0
-2288 -2317 2319 0
-2253 -2317 2319 0
2253 2288 -2319 0
2288 2317 -2319 0
2253 2317 -2319 0
2252 2287 -2322 0
-2252 -2287 -2322 0
-2252 2287 2322 0
2252 -2287 2322 0
2322 2319 -2300 0
-2322 -2319 -2300 0
-2322 2319 2300 0
2322 -2319 2300 0
-2252 -2287 2321 0
-2287 -2319 2321 0
-2252 -2319 2321 0
2252 2287 -2321 0
2287 2319 -2321 0
2252 2319 -2321 0
2251 2286 -2324 0
-2251 -2286 -2324 0
-2251 2286 2324 0
2251 -2286 2324 0
2324 2321 -2299 0
-2324 -2321 -2299 0
-2324 2321 2299 0
2324 -2321 2299 0
-2251 -2286 2323 0
-2286 -2321 2323 0
-2251 -2321 2323 0
2251 2286 -2323 0
2286 2321 -2323 0
2251 2321 -2323 0
2250 2285 -2326 0
-2250 -2285 -2326 0
-2250 2285 2326 0
2250 -2285 2326 0
2326 2323 -2298 0
-2326 -2323 -2298 0
-2326 2323 2298 0
2326 -2323 2298 0
-2250 -2285 2325 0
-2285 -2323 2325 0
-2250 -2323 2325 0
2250 2285 -2325 0
2285 2323 -2325 0
2250 2323 -2325 0
2249 2284 -2328 0
-2249 -2284 -2328 0
-2249 2284 2328 0
2249 -2284 2328 0
2328 2325 -2297 0
-2328 -2325 -2297 0
-2328 2325 2297 0
2328 -2325 2297 0
-2249 -2284 2327 0
-2284 -2325 2327 0
-2249 -2325 2327 0
2249 2284 -2327 0
2284 2325 -2327 0
2249 2325 -2327 0
2248 2283 -2329 0
-2248 -2283 -2329 0
-2248 2283 2329 0
2248 -2283 2329 0
2329 2327 -2296 0
-2329 -2327 -2296 0
-2329 2327 2296 0
2329 -2327 2296 0
-2248 -2283 2295 0
-2283 -2327 2295 0
-2248 -2327 2295 0
2248 2283 -2295 0
2283 2327 -2295 0
2248 2327 -2295 0
1837 -2330 0
1837 -2330 0
-1837 -1837 2330 0
1837 -2331 0
1838 -2331 0
-1837 -1838 2331 0
1837 -2332 0
1839 -2332 0
-1837 -1839 2332 0
1837 -2333 0
1840 -2333 0
-1837 -1840 2333 0
1837 -2334 0
1841 -2334 0
-1837 -1841 2334 0
1837 -2335 0
1842 -2335 0
-1837 -1842 2335 0
1837 -2336 0
1843 -2336 0
-1837 -1843 2336 0
1837 -2337 0
1844 -2337 0
-1837 -1844 2337 0
1837 -2338 0
1845 -2338 0
-1837 -1845 2338 0
1837 -2339 0
1846 -2339 0
-1837 -1846 2339 0
1837 -2340 0
1847 -2340 0
-1837 -1847 2340 0
1837 -2341 0
1848 -2341 0
-1837 -1848 2341 0
2306 2341 -2354 0
-2306 -2341 -2354 0
-2306 2341 2354 0
2306 -2341 2354 0
2306 -2355 0
2341 -2355 0
-2306 -2341 2355 0
2305 2340 -2357 0
-2305 -2340 -2357 0
-2305 2340 2357 0
2305 -2340 2357 0
2357 2355 -2353 0
-2357 -2355 -2353 0
-2357 2355 2353 0
2357 -2355 2353 0
-2305 -2340 2356 0
-2340 -2355 2356 0
-2305 -2355 2356 0
2305 2340 -2356 0
2340 2355 -2356 0
2305 2355 -2356 0
2304 2339 -2359 0
-2304 -2339 -2359 0
-2304 2339 2359 0
2304 -2339 2359 0
2359 2356 -2352 0
-2359 -2356 -2352 0
-2359 2356 2352 0
2359 -2356 2352 0
-2304 -2339 2358 0
-2339 -2356 2358 0
-2304 -2356 2358 0
2304 2339 -2358 0
2339 2356 -2358 0
2304 2356 -2358 0
2303 2338 -2361 0
-2303 -2338 -2361 0
-2303 2338 2361 0
2303 -2338 2361 0
2361 2358 -2351 0
-2361 -2358 -2351 0
-2361 2358 2351 0
2361 -2358 2351 0
-2303 -2338 2360 0
-2338 -2358 2360 0
-2303 -2358 2360 0
2303 2338 -2360 0
2338 2358 -2360 0
2303 2358 -2360 0
2302 2337 -2363 0
-2302 -2337 -2363 0
-2302 2337 2363 0
2302 -2337 2363 0
2363 2360 -2350 0
-2363 -2360 -2350 0
-2363 2360 2350 0
2363 -2360 2350 0
-2302 -2337 2362 0
-2337 -2360 2362 0
-2302 -2360 2362 0
2302 2337 -2362 0
2337 2360 -2362 0
2302 2360 -2362 0
2301 2336 -2365 0
-2301 -2336 -2365 0
-2301 2336 2365 0
2301 -2336 2365 0
2365 2362 -2349 0
-2365 -2362 -2349 0
-2365 2362 2349 0
2365 -2362 2349 0
-2301 -2336 2364 0
-2336 -2362 2364 0
-2301 -2362 2364 0
2301 2336 -2364 0
2336 2362 -2364 0
2301 2362 -2364 0
2300 2335 -2367 0
-2300 -2335 -2367 0
-2300 2335 2367 0
2300 -2335 2367 0
2367 2364 -2348 0
-2367 -2364 -2348 0
-2367 2364 2348 0
2367 -2364 2348 0
-2300 -2335 2366 0
-2335 -2364 2366 0
-2300 -2364 2366 0
2300 2335 -2366 0
2335 2364 -2366 0
2300 2364 -2366 0
2299 2334 -2369 0
-2299 -2334 -2369 0
-2299 2334 2369 0
2299 -2334 2369 0
2369 2366 -2347 0
-2369 -2366 -2347 0
-2369 2366 2347 0
2369 -2366 2347 0
-2299 -2334 2368 0
-2334 -2366 2368 0
-2299 -2366 2368 0
2299 2334 -2368 0
2334 2366 -2368 0
2299 2366 -2368 0
2298 2333 -2371 0
-2298 -2333 -2371 0
-2298 2333 2371 0
2298 -2333 2371 0
2371 2368 -2346 0
-2371 -2368 -2346 0
-2371 2368 2346 0
2371 -2368 2346 0
-2298 -2333 2370 0
-2333 -2368 2370 0
-2298 -2368 2370 0
2298 2333 -2370 0
2333 2368 -2370 0
2298 2368 -2370 0
2297 2332 -2373 0
-2297 -2332 -2373 0
-2297 2332 2373 0
2297 -2332 2373 0
2373 2370 -2345 0
-2373 -2370 -2345 0
-2373 2370 2345 0
2373 -2370 2345 0
-2297 -2332 2372 0
-2332 -2370 2372 0
-2297 -2370 2372 0
2297 2332 -2372 0
2332 2370 -2372 0
2297 2370 -2372 0
2296 2331 -2375 0
-2296 -2331 -2375 0
-2296 2331 2375 0
2296 -2331 2375 0
2375 2372 -2344 0
-2375 -2372 -2344 0
-2375 2372 2344 0
2375 -2372 2344 0
-2296 -2331 2374 0
-2331 -2372 2374 0
-2296 -2372 2374 0
2296 2331 -2374 0
2331 2372 -2374 0
2296 2372 -2374 0
2295 2330 -2376 0
-2295 -2330 -2376 0
-2295 2330 2376 0
2295 -2330 2376 0
2376 2374 -2343 0
-2376 -2374 -2343 0
-2376 2374 2343 0
2376 -2374 2343 0
-2295 -2330 2342 0
-2330 -2374 2342 0
-2295 -2374 2342 0
2295 2330 -2342 0
2330 2374 -2342 0
2295 2374 -2342 0
2342 -73 0
-2342 73 0
2343 -74 0
-2343 74 0
2344 -75 0
-2344 75 0
2345 -76 0
-2345 76 0
2346 -77 0
-2346 77 0
2347 -78 0
-2347 78 0
2348 -79 0
-2348 79 0
2349 -80 0
-2349 80 0
2350 -81 0
-2350 81 0
2351 -82 0
-2351 82 0
2352 -83 0
-2352 83 0
2353 -84 0
-2353 84 0
2354 -85 0
-2354 85 0
2307 -86 0
-2307 86 0
2260 -87 0
-2260 87 0
2213 -88 0
-2213 88 0
2166 -89 0
-2166 89 0
2119 -90 0
-2119 90 0
2072 -91 0
-2072 91 0
2025 -92 0
-2025 92 0
1978 -93 0
-1978 93 0
1931 -94 0
-1931 94 0
1885 -95 0
-1885 95 0
1860 -96 0
-1860 96 0
97 98 99 100 101 102 103 104 105 106 107 108 109 110 111 112 113 114 115 116 117 118 119 120 0
2388 -2389 0
2377 -2389 0
-2388 -2377 2389 0
2388 -2390 0
2378 -2390 0
-2388 -2378 2390 0
2388 -2391 0
2379 -2391 0
-2388 -2379 2391 0
2388 -2392 0
2380 -2392 0
-2388 -2380 2392 0
2388 -2393 0
2381 -2393 0
-2388 -2381 2393 0
2388 -2394 0
2382 -2394 0
-2388 -2382 2394 0
2388 -2395 0
2383 -2395 0
-2388 -2383 2395 0
2388 -2396 0
2384 -2396 0
-2388 -2384 2396 0
2388 -2397 0
2385 -2397 0
-2388 -2385 2397 0
2388 -2398 0
2386 -2398 0
-2388 -2386 2398 0
2388 -2399 0
2387 -2399 0
-2388 -2387 2399 0
2388 -2400 0
2388 -2400 0
-2388 -2388 2400 0
2387 -2401 0
2377 -2401 0
-2387 -2377 2401 0
2387 -2402 0
2378 -2402 0
-2387 -2378 2402 0
2387 -2403 0
2379 -2403 0
-2387 -2379 2403 0
2387 -2404 0
2380 -2404 0
-2387 -2380 2404 0
2387 -2405 0
2381 -2405 0
-2387 -2381 2405 0
2387 -2406 0
2382 -2406 0
-2387 -2382 2406 0
2387 -2407 0
2383 -2407 0
-2387 -2383 2407 0
2387 -2408 0
2384 -2408 0
-2387 -2384 2408 0
2387 -2409 0
2385 -2409 0
-2387 -2385 2409 0
2387 -2410 0
2386 -2410 0
-2387 -2386 2410 0
2387 -2411 0
2387 -2411 0
-2387 -2387 2411 0
2387 -2412 0
2388 -2412 0
-2387 -2388 2412 0
2399 2412 -2425 0
-2399 -2412 -2425 0
-2399 2412 2425 0
2399 -2412 2425 0
2399 -2426 0
2412 -2426 0
-2399 -2412 2426 0
2398 2411 -2428 0
-2398 -2411 -2428 0
-2398 2411 2428 0
2398 -2411 2428 0
2428 2426 -2424 0
-2428 -2426 -2424 0
-2428 2426 2424 0
2428 -2426 2424 0
-2398 -2411 2427 0
-2411 -2426 2427 0
-2398 -2426 2427 0
2398 2411 -2427 0
2411 2426 -2427 0
2398 2426 -2427 0
2397 2410 -2430 0
-2397 -2410 -2430 0
-2397 2410 2430 0
2397 -2410 2430 0
2430 2427 -2423 0
-2430 -2427 -2423 0
-2430 2427 2423 0
2430 -2427 2423 0
-2397 -2410 2429 0
-2410 -2427 2429 0
-2397 -2427 2429 0
2397 2410 -2429 0
2410 2427 -2429 0
2397 2427 -2429 0
2396 2409 -2432 0
-2396 -2409 -2432 0
-2396 2409 2432 0
2396 -2409 2432 0
2432 2429 -2422 0
-2432 -2429 -2422 0
-2432 2429 2422 0
2432 -2429 2422 0
-2396 -2409 2431 0
-2409 -2429 2431 0
-2396 -2429 2431 0
2396 2409 -2431 0
2409 2429 -2431 0
2396 2429 -2431 0
2395 2408 -2434 0
-2395 -2408 -2434 0
-2395 2408 2434 0
2395 -2408 2434 0
2434 2431 -2421 0
-2434 -2431 -2421 0
-2434 2431 2421 0
2434 -2431 2421 0
-2395 -2408 2433 0
-2408 -2431 2433 0
-2395 -2431 2433 0
2395 2408 -2433 0
2408 2431 -2433 0
2395 2431 -2433 0
2394 2407 -2436 0
-2394 -2407 -2436 0
-2394 2407 2436 0
2394 -2407 2436 0
2436 2433 -2420 0
-2436 -2433 -2420 0
-2436 2433 2420 0
2436 -2433 2420 0
-2394 -2407 2435 0
-2407 -2433 2435 0
-2394 -2433 2435 0
2394 2407 -2435 0
2407 2433 -2435 0
2394 2433 -2435 0
2393 2406 -2438 0
-2393 -2406 -2438 0
-2393 2406 2438 0
2393 -2406 2438 0
2438 2435 -2419 0
-2438 -2435 -2419 0
-2438 2435 2419 0
2438 -2435 2419 0
-2393 -2406 2437 0
-2406 -2435 2437 0
-2393 -2435 2437 0
2393 2406 -2437 0
2406 2435 -2437 0
2393 2435 -2437 0
2392 2405 -2440 0
-2392 -2405 -2440 0
-2392 2405 2440 0
2392 -2405 2440 0
2440 2437 -2418 0
-2440 -2437 -2418 0
-2440 2437 2418 0
2440 -2437 2418 0
-2392 -2405 2439 0
-2405 -2437 2439 0
-2392 -2437 2439 0
2392 2405 -2439 0
2405 2437 -2439 0
2392 2437 -2439 0
2391 2404 -2442 0
-2391 -2404 -2442 0
-2391 2404 2442 0
2391 -2404 2442 0
2442 2439 -2417 0
-2442 -2439 -2417 0
-2442 2439 2417 0
2442 -2439 2417 0
-2391 -2404 2441 0
-2404 -2439 2441 0
-2391 -2439 2441 0
2391 2404 -2441 0
2404 2439 -2441 0
2391 2439 -2441 0
2390 2403 -2444 0
-2390 -2403 -2444 0
-2390 2403 2444 0
2390 -2403 2444 0
2444 2441 -2416 0
-2444 -2441 -2416 0
-2444 2441 2416 0
2444 -2441 2416 0
-2390 -2403 2443 0
-2403 -2441 2443 0
-2390 -2441 2443 0
2390 2403 -2443 0
2403 2441 -2443 0
2390 2441 -2443 0
2389 2402 -2446 0
-2389 -2402 -2446 0
-2389 2402 2446 0
2389 -2402 2446 0
2446 2443 -2415 0
-2446 -2443 -2415 0
-2446 2443 2415 0
2446 -2443 2415 0
-2389 -2402 2445 0
-2402 -2443 2445 0
-2389 -2443 2445 0
2389 2402 -2445 0
2402 2443 -2445 0
2389 2443 -2445 0
2401 2445 -2414 0
-2401 -2445 -2414 0
-2401 2445 2414 0
2401 -2445 2414 0
2401 -2413 0
2445 -2413 0
-2401 -2445 2413 0
2386 -2447 0
2377 -2447 0
-2386 -2377 2447 0
2386 -2448 0
2378 -2448 0
-2386 -2378 2448 0
2386 -2449 0
2379 -2449 0
-2386 -2379 2449 0
2386 -2450 0
2380 -2450 0
-2386 -2380 2450 0
2386 -2451 0
2381 -2451 0
-2386 -2381 2451 0
2386 -2452 0
2382 -2452 0
-2386 -2382 2452 0
2386 -2453 0
2383 -2453 0
-2386 -2383 2453 0
2386 -2454 0
2384 -2454 0
-2386 -2384 2454 0
2386 -2455 0
2385 -2455 0
-2386 -2385 2455 0
2386 -2456 0
2386 -2456 0
-2386 -2386 2456 0
2386 -2457 0
2387 -2457 0
-2386 -2387 2457 0
2386 -2458 0
2388 -2458 0
-2386 -2388 2458 0
2424 2458 -2471 0
-2424 -2458 -2471 0
-2424 2458 2471 0
2424 -2458 2471 0
2424 -2472 0
2458 -2472 0
-2424 -2458 2472 0
2423 2457 -2474 0
-2423 -2457 -2474 0
-2423 2457 2474 0
2423 -2457 2474 0
2474 2472 -2470 0
-2474 -2472 -2470 0
-2474 2472 2470 0
2474 -2472 2470 0
-2423 -2457 2473 0
-2457 -2472 2473 0
-2423 -2472 2473 0
2423 2457 -2473 0
2457 2472 -2473 0
2423 2472 -2473 0
2422 2456 -2476 0
-2422 -2456 -2476 0
-2422 2456 2476 0
2422 -2456 2476 0
2476 2473 -2469 0
-2476 -2473 -2469 0
-2476 2473 2469 0
2476 -2473 2469 0
-2422 -2456 2475 0
-2456 -2473 2475 0
-2422 -2473 2475 0
2422 2456 -2475 0
2456 2473 -2475 0
2422 2473 -2475 0
2421 2455 -2478 0
-2421 -2455 -2478 0
-2421 2455 2478 0
2421 -2455 2478 0
2478 2475 -2468 0
-2478 -2475 -2468 0
-2478 2475 2468 0
2478 -2475 2468 0
-2421 -2455 2477 0
-2455 -2475 2477 0
-2421 -2475 2477 0
2421 2455 -2477 0
2455 2475 -2477 0
2421 2475 -2477 0
2420 2454 -2480 0
-2420 -2454 -2480 0
-2420 2454 2480 0
2420 -2454 2480 0
2480 2477 -2467 0
-2480 -2477 -2467 0
-2480 2477 2467 0
2480 -2477 2467 0
-2420 -2454 2479 0
-2454 -2477 2479 0
-2420 -2477 2479 0
2420 2454 -2479 0
2454 2477 -2479 0
2420 2477 -2479 0
2419 2453 -2482 0
-2419 -2453 -2482 0
-2419 2453 2482 0
2419 -2453 2482 0
2482 2479 -2466 0
-2482 -2479 -2466 0
-2482 2479 2466 0
2482 -2479 2466 0
-2419 -2453 2481 0
-2453 -2479 2481 0
-2419 -2479 2481 0
2419 2453 -2481 0
2453 2479 -2481 0
2419 2479 -2481 0
2418 2452 -2484 0
-2418 -2452 -2484 0
-2418 2452 2484 0
2418 -2452 2484 0
2484 2481 -2465 0
-2484 -2481 -2465 0
-2484 2481 2465 0
2484 -2481 2465 0
-2418 -2452 2483 0
-2452 -2481 2483 0
-2418 -2481 2483 0
2418 2452 -2483 0
2452 2481 -2483 0
2418 2481 -2483 0
2417 2451 -2486 0
-2417 -2451 -2486 0
-2417 2451 2486 0
2417 -2451 2486 0
2486 2483 -2464 0
-2486 -2483 -2464 0
-2486 2483 2464 0
2486 -2483 2464 0
-2417 -2451 2485 0
-2451 -2483 2485 0
-2417 -2483 2485 0
2417 2451 -2485 0
2451 2483 -2485 0
2417 2483 -2485 0
2416 2450 -2488 0
-2416 -2450 -2488 0
-2416 2450 2488 0
2416 -2450 2488 0
2488 2485 -2463 0
-2488 -2485 -2463 0
-2488 2485 2463 0
2488 -2485 2463 0
-2416 -2450 2487 0
-2450 -2485 2487 0
-2416 -2485 2487 0
2416 2450 -2487 0
2450 2485 -2487 0
2416 2485 -2487 0
2415 2449 -2490 0
-2415 -2449 -2490 0
-2415 2449 2490 0
2415 -2449 2490 0
2490 2487 -2462 0
-2490 -2487 -2462 0
-2490 2487 2462 0
2490 -2487 2462 0
-2415 -2449 2489 0
-2449 -2487 2489 0
-2415 -2487 2489 0
2415 2449 -2489 0
2449 2487 -2489 0
2415 2487 -2489 0
2414 2448 -2492 0
-2414 -2448 -2492 0
-2414 2448 2492 0
2414 -2448 2492 0
2492 2489 -2461 0
-2492 -2489 -2461 0
-2492 2489 2461 0
2492 -2489 2461 0
-2414 -2448 2491 0
-2448 -2489 2491 0
-2414 -2489 2491 0
2414 2448 -2491 0
2448 2489 -2491 0
2414 2489 -2491 0
2413 2447 -2493 0
-2413 -2447 -2493 0
-2413 2447 2493 0
2413 -2447 2493 0
2493 2491 -2460 0
-2493 -2491 -2460 0
-2493 2491 2460 0
2493 -2491 2460 0
-2413 -2447 2459 0
-2447 -2491 2459 0
-2413 -2491 2459 0
2413 2447 -2459 0
2447 2491 -2459 0
2413 2491 -2459 0
2385 -2494 0
2377 -2494 0
-2385 -2377 2494 0
2385 -2495 0
2378 -2495 0
-2385 -2378 2495 0
2385 -2496 0
2379 -2496 0
-2385 -2379 2496 0
2385 -2497 0
2380 -2497 0
-2385 -2380 2497 0
2385 -2498 0
2381 -2498 0
-2385 -2381 2498 0
2385 -2499 0
2382 -2499 0
-2385 -2382 2499 0
2385 -2500 0
2383 -2500 0
-2385 -2383 2500 0
2385 -2501 0
2384 -2501 0
-2385 -2384 2501 0
2385 -2502 0
2385 -2502 0
-2385 -2385 2502 0
2385 -2503 0
2386 -2503 0
-2385 -2386 2503 0
2385 -2504 0
2387 -2504 0
-2385 -2387 2504 0
2385 -2505 0
2388 -2505 0
-2385 -2388 2505 0
2470 2505 -2518 0
-2470 -2505 -2518 0
-2470 2505 2518 0
2470 -2505 2518 0
2470 -2519 0
2505 -2519 0
-2470 -2505 2519 0
2469 2504 -2521 0
-2469 -2504 -2521 0
-2469 2504 2521 0
2469 -2504 2521 0
2521 2519 -2517 0
-2521 -2519 -2517 0
-2521 2519 2517 0
2521 -2519 2517 0
-2469 -2504 2520 0
-2504 -2519 2520 0
-2469 -2519 2520 0
2469 2504 -2520 0
2504 2519 -2520 0
2469 2519 -2520 0
2468 2503 -2523 0
-2468 -2503 -2523 0
-2468 2503 2523 0
2468 -2503 2523 0
2523 2520 -2516 0
-2523 -2520 -2516 0
-2523 2520 2516 0
2523 -2520 2516 0
-2468 -2503 2522 0
-2503 -2520 2522 0
-2468 -2520 2522 0
2468 2503 -2522 0
2503 2520 -2522 0
2468 2520 -2522 0
2467 2502 -2525 0
-2467 -2502 -2525 0
-2467 2502 2525 0
2467 -2502 2525 0
2525 2522 -2515 0
-2525 -2522 -2515 0
-2525 2522 2515 0
2525 -2522 2515 0
-2467 -2502 2524 0
-2502 -2522 2524 0
-2467 -2522 2524 0
2467 2502 -2524 0
2502 2522 -2524 0
2467 2522 -2524 0
2466 2501 -2527 0
-2466 -2501 -2527 0
-2466 2501 2527 0
2466 -2501 2527 0
2527 2524 -2514 0
-2527 -2524 -2514 0
-2527 2524 2514 0
2527 -2524 2514 0
-2466 -2501 2526 0
-2501 -2524 2526 0
-2466 -2524 2526 0
2466 2501 -2526 0
2501 2524 -2526 0
2466 2524 -2526 0
2465 2500 -2529 0
-2465 -2500 -2529 0
-2465 2500 2529 0
2465 -2500 2529 0
2529 2526 -2513 0
-2529 -2526 -2513 0
-2529 2526 2513 0
2529 -2526 2513 0
-2465 -2500 2528 0
-2500 -2526 2528 0
-2465 -2526 2528 0
2465 2500 -2528 0
2500 2526 -2528 0
2465 2526 -2528 0
2464 2499 -2531 0
-2464 -2499 -2531 0
-2464 2499 2531 0
2464 -2499 2531 0
2531 2528 -2512 0
-2531 -2528 -2512 0
-2531 2528 2512 0
2531 -2528 2512 0
-2464 -2499 2530 0
-2499 -2528 2530 0
-2464 -2528 2530 0
2464 2499 -2530 0
2499 2528 -2530 0
2464 2528 -2530 0
2463 2498 -2533 0
-2463 -2498 -2533 0
-2463 2498 2533 0
2463 -2498 2533 0
2533 2530 -2511 0
-2533 -2530 -2511 0
-2533 2530 2511 0
2533 -2530 2511 0
-2463 -2498 2532 0
-2498 -2530 2532 0
-2463 -2530 2532 0
2463 2498 -2532 0
2498 2530 -2532 0
2463 2530 -2532 0
2462 2497 -2535 0
-2462 -2497 -2535 0
-2462 2497 2535 0
2462 -2497 2535 0
2535 2532 -2510 0
-2535 -2532 -2510 0
-2535 2532 2510 0
2535 -2532 2510 0
-2462 -2497 2534 0
-2497 -2532 2534 0
-2462 -2532 2534 0
2462 2497 -2534 0
2497 2532 -2534 0
2462 2532 -2534 0
2461 2496 -2537 0
-2461 -2496 -2537 0
-2461 2496 2537 0
2461 -2496 2537 0
2537 2534 -2509 0
-2537 -2534 -2509 0
-2537 2534 2509 0
2537 -2534 2509 0
-2461 -2496 2536 0
-2496 -2534 2536 0
-2461 -2534 2536 0
2461 2496 -2536 0
2496 2534 -2536 0
2461 2534 -2536 0
2460 2495 -2539 0
-2460 -2495 -2539 0
-2460 2495 2539 0
2460 -2495 2539 0
2539 2536 -2508 0
-2539 -2536 -2508 0
-2539 2536 2508 0
2539 -2536 2508 0
-2460 -2495 2538 0
-2495 -2536 2538 0
-2460 -2536 2538 0
2460 2495 -2538 0
2495 2536 -2538 0
2460 2536 -2538 0
2459 2494 -2540 0
-2459 -2494 -2540 0
-2459 2494 2540 0
2459 -2494 2540 0
2540 2538 -2507 0
-2540 -2538 -2507 0
-2540 2538 2507 0
2540 -2538 2507 0
-2459 -2494 2506 0
-2494 -2538 2506 0
-2459 -2538 2506 0
2459 2494 -2506 0
2494 2538 -2506 0
2459 2538 -2506 0
2384 -2541 0
2377 -2541 0
-2384 -2377 2541 0
2384 -2542 0
2378 -2542 0
-2384 -2378 2542 0
2384 -2543 0
2379 -2543 0
-2384 -2379 2543 0
2384 -2544 0
2380 -2544 0
-2384 -2380 2544 0
2384 -2545 0
2381 -2545 0
-2384 -2381 2545 0
2384 -2546 0
2382 -2546 0
-2384 -2382 2546 0
2384 -2547 0
2383 -2547 0
-2384 -2383 2547 0
2384 -2548 0
2384 -2548 0
-2384 -2384 2548 0
2384 -2549 0
2385 -2549 0
-2384 -2385 2549 0
2384 -2550 0
2386 -2550 0
-2384 -2386 2550 0
2384 -2551 0
2387 -2551 0
-2384 -2387 2551 0
2384 -2552 0
2388 -2552 0
-2384 -2388 2552 0
2517 2552 -2565 0
-2517 -2552 -2565 0
-2517 2552 2565 0
2517 -2552 2565 0
2517 -2566 0
2552 -2566 0
-2517 -2552 2566 0
2516 2551 -2568 0
-2516 -2551 -2568 0
-2516 2551 2568 0
2516 -2551 2568 0
2568 2566 -2564 0
-2568 -2566 -2564 0
-2568 2566 2564 0
2568 -2566 2564 0
-2516 -2551 2567 0
-2551 -2566 2567 0
-2516 -2566 2567 0
2516 2551 -2567 0
2551 2566 -2567 0
2516 2566 -2567 0
2515 2550 -2570 0
-2515 -2550 -2570 0
-2515 2550 2570 0
2515 -2550 2570 0
2570 2567 -2563 0
-2570 -2567 -2563 0
-2570 2567 2563 0
2570 -2567 2563 0
-2515 -2550 2569 0
-2550 -2567 2569 0
-2515 -2567 2569 0
2515 2550 -2569 0
2550 2567 -2569 0
2515 2567 -2569 0
2514 2549 -2572 0
-2514 -2549 -2572 0
-2514 2549 2572 0
2514 -2549 2572 0
2572 2569 -2562 0
-2572 -2569 -2562 0
-2572 2569 2562 0
2572 -2569 2562 0
-2514 -2549 2571 0
-2549 -2569 2571 0
-2514 -2569 2571 0
2514 2549 -2571 0
2549 2569 -2571 0
2514 2569 -2571 0
2513 2548 -2574 0
-2513 -2548 -2574 0
-2513 2548 2574 0
2513 -2548 2574 0
2574 2571 -2561 0
-2574 -2571 -2561 0
-2574 2571 2561 0
2574 -2571 2561 0
-2513 -2548 2573 0
-2548 -2571 2573 0
-2513 -2571 2573 0
2513 2548 -2573 0
2548 2571 -2573 0
2513 2571 -2573 0
2512 2547 -2576 0
-2512 -2547 -2576 0
-2512 2547 2576 0
2512 -2547 2576 0
2576 2573 -2560 0
-2576 -2573 -2560 0
-2576 2573 2560 0
2576 -2573 2560 0
-2512 -2547 2575 0
-2547 -2573 2575 0
-2512 -2573 2575 0
2512 2547 -2575 0
2547 2573 -2575 0
2512 2573 -2575 0
2511 2546 -2578 0
-2511 -2546 -2578 0
-2511 2546 2578 0
2511 -2546 2578 0
2578 2575 -2559 0
-2578 -2575 -2559 0
-2578 2575 2559 0
2578 -2575 2559 0
-2511 -2546 2577 0
-2546 -2575 2577 0
-2511 -2575 2577 0
2511 2546 -2577 0
2546 2575 -2577 0
2511 2575 -2577 0
2510 2545 -2580 0
-2510 -2545 -2580 0
-2510 2545 2580 0
2510 -2545 2580 0
2580 2577 -2558 0
-2580 -2577 -2558 0
-2580 2577 2558 0
2580 -2577 2558 0
-2510 -2545 2579 0
-2545 -2577 2579 0
-2510 -2577 2579 0
2510 2545 -2579 0
2545 2577 -2579 0
2510 2577 -2579 0
2509 2544 -2582 0
-2509 -2544 -2582 0
-2509 2544 2582 0
2509 -2544 2582 0
2582 2579 -2557 0
-2582 -2579 -2557 0
-2582 2579 2557 0
2582 -2579 2557 0
-2509 -2544 2581 0
-2544 -2579 2581 0
-2509 -2579 2581 0
2509 2544 -2581 0
2544 2579 -2581 0
2509 2579 -2581 0
2508 2543 -2584 0
-2508 -2543 -2584 0
-2508 2543 2584 0
2508 -2543 2584 0
2584 2581 -2556 0
-2584 -2581 -2556 0
-2584 2581 2556 0
2584 -2581 2556 0
-2508 -2543 2583 0
-2543 -2581 2583 0
-2508 -2581 2583 0
2508 2543 -2583 0
2543 2581 -2583 0
2508 2581 -2583 0
2507 2542 -2586 0
-2507 -2542 -2586 0
-2507 2542 2586 0
2507 -2542 2586 0
2586 2583 -2555 0
-2586 -2583 -2555 0
-2586 2583 2555 0
2586 -2583 2555 0
-2507 -2542 2585 0
-2542 -2583 2585 0
-2507 -2583 2585 0
2507 2542 -2585 0
2542 2583 -2585 0
2507 2583 -2585 0
2506 2541 -2587 0
-2506 -2541 -2587 0
-2506 2541 2587 0
2506 -2541 2587 0
2587 2585 -2554 0
-2587 -2585 -2554 0
-2587 2585 2554 0
2587 -2585 2554 0
-2506 -2541 2553 0
-2541 -2585 2553 0
-2506 -2585 2553 0
2506 2541 -2553 0
2541 2585 -2553 0
2506 2585 -2553 0
2383 -2588 0
2377 -2588 0
-2383 -2377 2588 0
2383 -2589 0
2378 -2589 0
-2383 -2378 2589 0
2383 -2590 0
2379 -2590 0
-2383 -2379 2590 0
2383 -2591 0
2380 -2591 0
-2383 -2380 2591 0
2383 -2592 0
2381 -2592 0
-2383 -2381 2592 0
2383 -2593 0
2382 -2593 0
-2383 -2382 2593 0
2383 -2594 0
2383 -2594 0
-2383 -2383 2594 0
2383 -2595 0
2384 -2595 0
-2383 -2384 2595 0
2383 -2596 0
2385 -2596 0
-2383 -2385 2596 0
2383 -2597 0
2386 -2597 0
-2383 -2386 2597 0
2383 -2598 0
2387 -2598 0
-2383 -2387 2598 0
2383 -2599 0
2388 -2599 0
-2383 -2388 2599 0
2564 2599 -2612 0
-2564 -2599 -2612 0
-2564 2599 2612 0
2564 -2599 2612 0
2564 -2613 0
2599 -2613 0
-2564 -2599 2613 0
2563 2598 -2615 0
-2563 -2598 -2615 0
-2563 2598 2615 0
2563 -2598 2615 0
2615 2613 -2611 0
-2615 -2613 -2611 0
-2615 2613 2611 0
2615 -2613 2611 0
-2563 -2598 2614 0
-2598 -2613 2614 0
-2563 -2613 2614 0
2563 2598 -2614 0
2598 2613 -2614 0
2563 2613 -2614 0
2562 2597 -2617 0
-2562 -2597 -2617 0
-2562 2597 2617 0
2562 -2597 2617 0
2617 2614 -2610 0
-2617 -2614 -2610 0
-2617 2614 2610 0
2617 -2614 2610 0
-2562 -2597 2616 0
-2597 -2614 2616 0
-2562 -2614 2616 0
2562 2597 -2616 0
2597 2614 -2616 0
2562 2614 -2616 0
2561 2596 -2619 0
-2561 -2596 -2619 0
-2561 2596 2619 0
2561 -2596 2619 0
2619 2616 -2609 0
-2619 -2616 -2609 0
-2619 2616 2609 0
2619 -2616 2609 0
-2561 -2596 2618 0
-2596 -2616 2618 0
-2561 -2616 2618 0
2561 2596 -2618 0
2596 2616 -2618 0
2561 2616 -2618 0
2560 2595 -2621 0
-2560 -2595 -2621 0
-2560 2595 2621 0
2560 -2595 2621 0
2621 2618 -2608 0
-2621 -2618 -2608 0
-2621 2618 2608 0
2621 -2618 2608 0
-2560 -2595 2620 0
-2595 -2618 2620 0
-2560 -2618 2620 0
2560 2595 -2620 0
2595 2618 -2620 0
2560 2618 -2620 0
2559 2594 -2623 0
-2559 -2594 -2623 0
-2559 2594 2623 0
2559 -2594 2623 0
2623 2620 -2607 0
-2623 -2620 -2607 0
-2623 2620 2607 0
2623 -2620 2607 0
-2559 -2594 2622 0
-2594 -2620 2622 0
-2559 -2620 2622 0
2559 2594 -2622 0
2594 2620 -2622 0
2559 2620 -2622 0
2558 2593 -2625 0
-2558 -2593 -2625 0
-2558 2593 2625 0
2558 -2593 2625 0
2625 2622 -2606 0
-2625 -2622 -2606 0
-2625 2622 2606 0
2625 -2622 2606 0
-2558 -2593 2624 0
-2593 -2622 2624 0
-2558 -2622 2624 0
2558 2593 -2624 0
2593 2622 -2624 0
2558 2622 -2624 0
2557 2592 -2627 0
-2557 -2592 -2627 0
-2557 2592 2627 0
2557 -2592 2627 0
2627 2624 -2605 0
-2627 -2624 -2605 0
-2627 2624 2605 0
2627 -2624 2605 0
-2557 -2592 2626 0
-2592 -2624 2626 0
-2557 -2624 2626 0
2557 2592 -2626 0
2592 2624 -2626 0
2557 2624 -2626 0
2556 2591 -2629 0
-2556 -2591 -2629 0
-2556 2591 2629 0
2556 -2591 2629 0
2629 2626 -2604 0
-2629 -2626 -2604 0
-2629 2626 2604 0
2629 -2626 2604 0
-2556 -2591 2628 0
-2591 -2626 2628 0
-2556 -2626 2628 0
2556 2591 -2628 0
2591 2626 -2628 0
2556 2626 -2628 0
2555 2590 -2631 0
-2555 -2590 -2631 0
-2555 2590 2631 0
2555 -2590 2631 0
2631 2628 -2603 0
-2631 -2628 -2603 0
-2631 2628 2603 0
2631 -2628 2603 0
-2555 -2590 2630 0
-2590 -2628 2630 0
-2555 -2628 2630 0
2555 2590 -2630 0
2590 2628 -2630 0
2555 2628 -2630 0
2554 2589 -2633 0
-2554 -2589 -2633 0
-2554 2589 2633 0
2554 -2589 2633 0
2633 2630 -2602 0
-2633 -2630 -2602 0
-2633 2630 2602 0
2633 -2630 2602 0
-2554 -2589 2632 0
-2589 -2630 2632 0
-2554 -2630 2632 0
2554 2589 -2632 0
2589 2630 -2632 0
2554 2630 -2632 0
2553 2588 -2634 0
-2553 -2588 -2634 0
-2553 2588 2634 0
2553 -2588 2634 0
2634 2632 -2601 0
-2634 -2632 -2601 0
-2634 2632 2601 0
2634 -2632 2601 0
-2553 -2588 2600 0
-2588 -2632 2600 0
-2553 -2632 2600 0
2553 2588 -2600 0
2588 2632 -2600 0
2553 2632 -2600 0
2382 -2635 0
2377 -2635 0
-2382 -2377 2635 0
2382 -2636 0
2378 -2636 0
-2382 -2378 2636 0
2382 -2637 0
2379 -2637 0
-2382 -2379 2637 0
2382 -2638 0
2380 -2638 0
-2382 -2380 2638 0
2382 -2639 0
2381 -2639 0
-2382 -2381 2639 0
2382 -2640 0
2382 -2640 0
-2382 -2382 2640 0
2382 -2641 0
2383 -2641 0
-2382 -2383 2641 0
2382 -2642 0
2384 -2642 0
-2382 -2384 2642 0
2382 -2643 0
2385 -2643 0
-2382 -2385 2643 0
2382 -2644 0
2386 -2644 0
-2382 -2386 2644 0
2382 -2645 0
2387 -2645 0
-2382 -2387 2645 0
2382 -2646 0
2388 -2646 0
-2382 -2388 2646 0
2611 2646 -2659 0
-2611 -2646 -2659 0
-2611 2646 2659 0
2611 -2646 2659 0
2611 -2660 0
2646 -2660 0
-2611 -2646 2660 0
2610 2645 -2662 0
-2610 -2645 -2662 0
-2610 2645 2662 0
2610 -2645 2662 0
2662 2660 -2658 0
-2662 -2660 -2658 0
-2662 2660 2658 0
2662 -2660 2658 0
-2610 -2645 2661 0
-2645 -2660 2661 0
-2610 -2660 2661 0
2610 2645 -2661 0
2645 2660 -2661 0
2610 2660 -2661 0
2609 2644 -2664 0
-2609 -2644 -2664 0
-2609 2644 2664 0
2609 -2644 2664 0
2664 2661 -2657 0
-2664 -2661 -2657 0
-2664 2661 2657 0
2664 -2661 2657 0
-2609 -2644 2663 0
-2644 -2661 2663 0
-2609 -2661 2663 0
2609 2644 -2663 0
2644 2661 -2663 0
2609 2661 -2663 0
2608 2643 -2666 0
-2608 -2643 -2666 0
-2608 2643 2666 0
2608 -2643 2666 0
2666 2663 -2656 0
-2666 -2663 -2656 0
-2666 2663 2656 0
2666 -2663 2656 0
-2608 -2643 2665 0
-2643 -2663 2665 0
-2608 -2663 2665 0
2608 2643 -2665 0
2643 2663 -2665 0
2608 2663 -2665 0
2607 2642 -2668 0
-2607 -2642 -2668 0
-2607 2642 2668 0
2607 -2642 2668 0
2668 2665 -2655 0
-2668 -2665 -2655 0
-2668 2665 2655 0
2668 -2665 2655 0
-2607 -2642 2667 0
-2642 -2665 2667 0
-2607 -2665 2667 0
2607 2642 -2667 0
2642 2665 -2667 0
2607 2665 -2667 0
2606 2641 -2670 0
-2606 -2641 -2670 0
-2606 2641 2670 0
2606 -2641 2670 0
2670 2667 -2654 0
-2670 -2667 -2654 0
-2670 2667 2654 0
2670 -2667 2654 0
-2606 -2641 2669 0
-2641 -2667 2669 0
-2606 -2667 2669 0
2606 2641 -2669 0
2641 2667 -2669 0
2606 2667 -2669 0
2605 2640 -2672 0
-2605 -2640 -2672 0
-2605 2640 2672 0
2605 -2640 2672 0
2672 2669 -2653 0
-2672 -2669 -2653 0
-2672 2669 2653 0
2672 -2669 2653 0
-2605 -2640 2671 0
-2640 -2669 2671 0
-2605 -2669 2671 0
2605 2640 -2671 0
2640 2669 -2671 0
2605 2669 -2671 0
2604 2639 -2674 0
-2604 -2639 -2674 0
-2604 2639 2674 0
2604 -2639 2674 0
2674 2671 -2652 0
-2674 -2671 -2652 0
-2674 2671 2652 0
2674 -2671 2652 0
-2604 -2639 2673 0
-2639 -2671 2673 0
-2604 -2671 2673 0
2604 2639 -2673 0
2639 2671 -2673 0
2604 2671 -2673 0
2603 2638 -2676 0
-2603 -2638 -2676 0
-2603 2638 2676 0
2603 -2638 2676 0
2676 2673 -2651 0
-2676 -2673 -2651 0
-2676 2673 2651 0
2676 -2673 2651 0
-2603 -2638 2675 0
-2638 -2673 2675 0
-2603 -2673 2675 0
2603 2638 -2675 0
2638 2673 -2675 0
2603 2673 -2675 0
2602 2637 -2678 0
-2602 -2637 -2678 0
-2602 2637 2678 0
2602 -2637 2678 0
2678 2675 -2650 0
-2678 -2675 -2650 0
-2678 2675 2650 0
2678 -2675 2650 0
-2602 -2637 2677 0
-2637 -2675 2677 0
-2602 -2675 2677 0
2602 2637 -2677 0
2637 2675 -2677 0
2602 2675 -2677 0
2601 2636 -2680 0
-2601 -2636 -2680 0
-2601 2636 2680 0
2601 -2636 2680 0
2680 2677 -2649 0
-2680 -2677 -2649 0
-2680 2677 2649 0
2680 -2677 2649 0
-2601 -2636 2679 0
-2636 -2677 2679 0
-2601 -2677 2679 0
2601 2636 -2679 0
2636 2677 -2679 0
2601 2677 -2679 0
2600 2635 -2681 0
-2600 -2635 -2681 0
-2600 2635 2681 0
2600 -2635 2681 0
2681 2679 -2648 0
-2681 -2679 -2648 0
-2681 2679 2648 0
2681 -2679 2648 0
-2600 -2635 2647 0
-2635 -2679 2647 0
-2600 -2679 2647 0
2600 2635 -2647 0
2635 2679 -2647 0
2600 2679 -2647 0
2381 -2682 0
2377 -2682 0
-2381 -2377 2682 0
2381 -2683 0
2378 -2683 0
-2381 -2378 2683 0
2381 -2684 0
2379 -2684 0
-2381 -2379 2684 0
2381 -2685 0
2380 -2685 0
-2381 -2380 2685 0
2381 -2686 0
2381 -2686 0
-2381 -2381 2686 0
2381 -2687 0
2382 -2687 0
-2381 -2382 2687 0
2381 -2688 0
2383 -2688 0
-2381 -2383 2688 0
2381 -2689 0
2384 -2689 0
-2381 -2384 2689 0
2381 -2690 0
2385 -2690 0
-2381 -2385 2690 0
2381 -2691 0
2386 -2691 0
-2381 -2386 2691 0
2381 -2692 0
2387 -2692 0
-2381 -2387 2692 0
2381 -2693 0
2388 -2693 0
-2381 -2388 2693 0
2658 2693 -2706 0
-2658 -2693 -2706 0
-2658 2693 2706 0
2658 -2693 2706 0
2658 -2707 0
2693 -2707 0
-2658 -2693 2707 0
2657 2692 -2709 0
-2657 -2692 -2709 0
-2657 2692 2709 0
2657 -2692 2709 0
2709 2707 -2705 0
-2709 -2707 -2705 0
-2709 2707 2705 0
2709 -2707 2705 0
-2657 -2692 2708 0
-2692 -2707 2708 0
-2657 -2707 2708 0
2657 2692 -2708 0
2692 2707 -2708 0
2657 2707 -2708 0
2656 2691 -2711 0
-2656 -2691 -2711 0
-2656 2691 2711 0
2656 -2691 2711 0
2711 2708 -2704 0
-2711 -2708 -2704 0
-2711 2708 2704 0
2711 -2708 2704 0
-2656 -2691 2710 0
-2691 -2708 2710 0
-2656 -2708 2710 0
2656 2691 -2710 0
2691 2708 -2710 0
2656 2708 -2710 0
2655 2690 -2713 0
-2655 -2690 -2713 0
-2655 2690 2713 0
2655 -2690 2713 0
2713 2710 -2703 0
-2713 -2710 -2703 0
-2713 2710 2703 0
2713 -2710 2703 0
-2655 -2690 2712 0
-2690 -2710 2712 0
-2655 -2710 2712 0
2655 2690 -2712 0
2690 2710 -2712 0
2655 2710 -2712 0
2654 2689 -2715 0
-2654 -2689 -2715 0
-2654 2689 2715 0
2654 -2689 2715 0
2715 2712 -2702 0
-2715 -2712 -2702 0
-2715 2712 2702 0
2715 -2712 2702 0
-2654 -2689 2714 0
-2689 -2712 2714 0
-2654 -2712 2714 0
2654 2689 -2714 0
2689 2712 -2714 0
2654 2712 -2714 0
2653 2688 -2717 0
-2653 -2688 -2717 0
-2653 2688 2717 0
2653 -2688 2717 0
2717 2714 -2701 0
-2717 -2714 -2701 0
-2717 2714 2701 0
2717 -2714 2701 0
-2653 -2688 2716 0
-2688 -2714 2716 0
-2653 -2714 2716 0
2653 2688 -2716 0
2688 2714 -2716 0
2653 2714 -2716 0
2652 2687 -2719 0
-2652 -2687 -2719 0
-2652 2687 2719 0
2652 -2687 2719 0
2719 2716 -2700 0
-2719 -2716 -2700 0
-2719 2716 2700 0
2719 -2716 2700 0
-2652 -2687 2718 0
-2687 -2716 2718 0
-2652 -2716 2718 0
2652 2687 -2718 0
2687 2716 -2718 0
2652 2716 -2718 0
2651 2686 -2721 0
-2651 -2686 -2721 0
-2651 2686 2721 0
2651 -2686 2721 0
2721 2718 -2699 0
-2721 -2718 -2699 0
-2721 2718 2699 0
2721 -2718 2699 0
-2651 -2686 2720 0
-2686 -2718 2720 0
-2651 -2718 2720 0
2651 2686 -2720 0
2686 2718 -2720 0
2651 2718 -2720 0
2650 2685 -2723 0
-2650 -2685 -2723 0
-2650 2685 2723 0
2650 -2685 2723 0
2723 2720 -2698 0
-2723 -2720 -2698 0
-2723 2720 2698 0
2723 -2720 2698 0
-2650 -2685 2722 0
-2685 -2720 2722 0
-2650 -2720 2722 0
2650 2685 -2722 0
2685 2720 -2722 0
2650 2720 -2722 0
2649 2684 -2725 0
-2649 -2684 -2725 0
-2649 2684 2725 0
2649 -2684 2725 0
2725 2722 -2697 0
-2725 -2722 -2697 0
-2725 2722 2697 0
2725 -2722 2697 0
-2649 -2684 2724 0
-2684 -2722 2724 0
-2649 -2722 2724 0
2649 2684 -2724 0
2684 2722 -2724 0
2649 2722 -2724 0
2648 2683 -2727 0
-2648 -2683 -2727 0
-2648 2683 2727 0
2648 -2683 2727 0
2727 2724 -2696 0
-2727 -2724 -2696 0
-2727 2724 2696 0
2727 -2724 2696 0
-2648 -2683 2726 0
-2683 -2724 2726 0
-2648 -2724 2726 0
2648 2683 -2726 0
2683 2724 -2726 0
2648 2724 -2726 0
2647 2682 -2728 0
-2647 -2682 -2728 0
-2647 2682 2728 0
2647 -2682 2728 0
2728 2726 -2695 0
-2728 -2726 -2695 0
-2728 2726 2695 0
2728 -2726 2695 0
-2647 -2682 2694 0
-2682 -2726 2694 0
-2647 -2726 2694 0
2647 2682 -2694 0
2682 2726 -2694 0
2647 2726 -2694 0
2380 -2729 0
2377 -2729 0
-2380 -2377 2729 0
2380 -2730 0
2378 -2730 0
-2380 -2378 2730 0
2380 -2731 0
2379 -2731 0
-2380 -2379 2731 0
2380 -2732 0
2380 -2732 0
-2380 -2380 2732 0
2380 -2733 0
2381 -2733 0
-2380 -2381 2733 0
2380 -2734 0
2382 -2734 0
-2380 -2382 2734 0
2380 -2735 0
2383 -2735 0
-2380 -2383 2735 0
2380 -2736 0
2384 -2736 0
-2380 -2384 2736 0
2380 -2737 0
2385 -2737 0
-2380 -2385 2737 0
2380 -2738 0
2386 -2738 0
-2380 -2386 2738 0
2380 -2739 0
2387 -2739 0
-2380 -2387 2739 0
2380 -2740 0
2388 -2740 0
-2380 -2388 2740 0
2705 2740 -2753 0
-2705 -2740 -2753 0
-2705 2740 2753 0
2705 -2740 2753 0
2705 -2754 0
2740 -2754 0
-2705 -2740 2754 0
2704 2739 -2756 0
-2704 -2739 -2756 0
-2704 2739 2756 0
2704 -2739 2756 0
2756 2754 -2752 0
-2756 -2754 -2752 0
-2756 2754 2752 0
2756 -2754 2752 0
-2704 -2739 2755 0
-2739 -2754 2755 0
-2704 -2754 2755 0
2704 2739 -2755 0
2739 2754 -2755 0
2704 2754 -2755 0
2703 2738 -2758 0
-2703 -2738 -2758 0
-2703 2738 2758 0
2703 -2738 2758 0
2758 2755 -2751 0
-2758 -2755 -2751 0
-2758 2755 2751 0
2758 -2755 2751 0
-2703 -2738 2757 0
-2738 -2755 2757 0
-2703 -2755 2757 0
2703 2738 -2757 0
2738 2755 -2757 0
2703 2755 -2757 0
2702 2737 -2760 0
-2702 -2737 -2760 0
-2702 2737 2760 0
2702 -2737 2760 0
2760 2757 -2750 0
-2760 -2757 -2750 0
-2760 2757 2750 0
2760 -2757 2750 0
-2702 -2737 2759 0
-2737 -2757 2759 0
-2702 -2757 2759 0
2702 2737 -2759 0
2737 2757 -2759 0
2702 2757 -2759 0
2701 2736 -2762 0
-2701 -2736 -2762 0
-2701 2736 2762 0
2701 -2736 2762 0
2762 2759 -2749 0
-2762 -2759 -2749 0
-2762 2759 2749 0
2762 -2759 2749 0
-2701 -2736 2761 0
-2736 -2759 2761 0
-2701 -2759 2761 0
2701 2736 -2761 0
2736 2759 -2761 0
2701 2759 -2761 0
2700 2735 -2764 0
-2700 -2735 -2764 0
-2700 2735 2764 0
2700 -2735 2764 0
2764 2761 -2748 0
-2764 -2761 -2748 0
-2764 2761 2748 0
2764 -2761 2748 0
-2700 -2735 2763 0
-2735 -2761 2763 0
-2700 -2761 2763 0
2700 2735 -2763 0
2735 2761 -2763 0
2700 2761 -2763 0
2699 2734 -2766 0
-2699 -2734 -2766 0
-2699 2734 2766 0
2699 -2734 2766 0
2766 2763 -2747 0
-2766 -2763 -2747 0
-2766 2763 2747 0
2766 -2763 2747 0
-2699 -2734 2765 0
-2734 -2763 2765 0
-2699 -2763 2765 0
2699 2734 -2765 0
2734 2763 -2765 0
2699 2763 -2765 0
2698 2733 -2768 0
-2698 -2733 -2768 0
-2698 2733 2768 0
2698 -2733 2768 0
2768 2765 -2746 0
-2768 -2765 -2746 0
-2768 2765 2746 0
2768 -2765 2746 0
-2698 -2733 2767 0
-2733 -2765 2767 0
-2698 -2765 2767 0
2698 2733 -2767 0
2733 2765 -2767 0
2698 2765 -2767 0
2697 2732 -2770 0
-2697 -2732 -2770 0
-2697 2732 2770 0
2697 -2732 2770 0
2770 2767 -2745 0
-2770 -2767 -2745 0
-2770 2767 2745 0
2770 -2767 2745 0
-2697 -2732 2769 0
-2732 -2767 2769 0
-2697 -2767 2769 0
2697 2732 -2769 0
2732 2767 -2769 0
2697 2767 -2769 0
2696 2731 -2772 0
-2696 -2731 -2772 0
-2696 2731 2772 0
2696 -2731 2772 0
2772 2769 -2744 0
-2772 -2769 -2744 0
-2772 2769 2744 0
2772 -2769 2744 0
-2696 -2731 2771 0
-2731 -2769 2771 0
-2696 -2769 2771 0
2696 2731 -2771 0
2731 2769 -2771 0
2696 2769 -2771 0
2695 2730 -2774 0
-2695 -2730 -2774 0
-2695 2730 2774 0
2695 -2730 2774 0
2774 2771 -2743 0
-2774 -2771 -2743 0
-2774 2771 2743 0
2774 -2771 2743 0
-2695 -2730 2773 0
-2730 -2771 2773 0
-2695 -2771 2773 0
2695 2730 -2773 0
2730 2771 -2773 0
2695 2771 -2773 0
2694 2729 -2775 0
-2694 -2729 -2775 0
-2694 2729 2775 0
2694 -2729 2775 0
2775 2773 -2742 0
-2775 -2773 -2742 0
-2775 2773 2742 0
2775 -2773 2742 0
-2694 -2729 2741 0
-2729 -2773 2741 0
-2694 -2773 2741 0
2694 2729 -2741 0
2729 2773 -2741 0
2694 2773 -2741 0
2379 -2776 0
2377 -2776 0
-2379 -2377 2776 0
2379 -2777 0
2378 -2777 0
-2379 -2378 2777 0
2379 -2778 0
2379 -2778 0
-2379 -2379 2778 0
2379 -2779 0
2380 -2779 0
-2379 -2380 2779 0
2379 -2780 0
2381 -2780 0
-2379 -2381 2780 0
2379 -2781 0
2382 -2781 0
-2379 -2382 2781 0
2379 -2782 0
2383 -2782 0
-2379 -2383 2782 0
2379 -2783 0
2384 -2783 0
-2379 -2384 2783 0
2379 -2784 0
2385 -2784 0
-2379 -2385 2784 0
2379 -2785 0
2386 -2785 0
-2379 -2386 2785 0
2379 -2786 0
2387 -2786 0
-2379 -2387 2786 0
2379 -2787 0
2388 -2787 0
-2379 -2388 2787 0
2752 2787 -2800 0
-2752 -2787 -2800 0
-2752 2787 2800 0
2752 -2787 2800 0
2752 -2801 0
2787 -2801 0
-2752 -2787 2801 0
2751 2786 -2803 0
-2751 -2786 -2803 0
-2751 2786 2803 0
2751 -2786 2803 0
2803 2801 -2799 0
-2803 -2801 -2799 0
-2803 2801 2799 0
2803 -2801 2799 0
-2751 -2786 2802 0
-2786 -2801 2802 0
-2751 -2801 2802 0
2751 2786 -2802 0
2786 2801 -2802 0
2751 2801 -2802 0
2750 2785 -2805 0
-2750 -2785 -2805 0
-2750 2785 2805 0
2750 -2785 2805 0
2805 2802 -2798 0
-2805 -2802 -2798 0
-2805 2802 2798 0
2805 -2802 2798 0
-2750 -2785 2804 0
-2785 -2802 2804 0
-2750 -2802 2804 0
2750 2785 -2804 0
2785 2802 -2804 0
2750 2802 -2804 0
2749 2784 -2807 0
-2749 -2784 -2807 0
-2749 2784 2807 0
2749 -2784 2807 0
2807 2804 -2797 0
-2807 -2804 -2797 0
-2807 2804 2797 0
2807 -2804 2797 0
-2749 -2784 2806 0
-2784 -2804 2806 0
-2749 -2804 2806 0
2749 2784 -2806 0
2784 2804 -2806 0
2749 2804 -2806 0
2748 2783 -2809 0
-2748 -2783 -2809 0
-2748 2783 2809 0
2748 -2783 2809 0
2809 2806 -2796 0
-2809 -2806 -2796 0
-2809 2806 2796 0
2809 -2806 2796 0
-2748 -2783 2808 0
-2783 -2806 2808 0
-2748 -2806 2808 0
2748 2783 -2808 0
2783 2806 -2808 0
2748 2806 -2808 0
2747 2782 -2811 0
-2747 -2782 -2811 0
-2747 2782 2811 0
2747 -2782 2811 0
2811 2808 -2795 0
-2811 -2808 -2795 0
-2811 2808 2795 0
2811 -2808 2795 0
-2747 -2782 2810 0
-2782 -2808 2810 0
-2747 -2808 2810 0
2747 2782 -2810 0
2782 2808 -2810 0
2747 2808 -2810 0
2746 2781 -2813 0
-2746 -2781 -2813 0
-2746 2781 2813 0
2746 -2781 2813 0
2813 2810 -2794 0
-2813 -2810 -2794 0
-2813 2810 2794 0
2813 -2810 2794 0
-2746 -2781 2812 0
-2781 -2810 2812 0
-2746 -2810 2812 0
2746 2781 -2812 0
2781 2810 -2812 0
2746 2810 -2812 0
2745 2780 -2815 0
-2745 -2780 -2815 0
-2745 2780 2815 0
2745 -2780 2815 0
2815 2812 -2793 0
-2815 -2812 -2793 0
-2815 2812 2793 0
2815 -2812 2793 0
-2745 -2780 2814 0
-2780 -2812 2814 0
-2745 -2812 2814 0
2745 2780 -2814 0
2780 2812 -2814 0
2745 2812 -2814 0
2744 2779 -2817 0
-2744 -2779 -2817 0
-2744 2779 2817 0
2744 -2779 2817 0
2817 2814 -2792 0
-2817 -2814 -2792 0
-2817 2814 2792 0
2817 -2814 2792 0
-2744 -2779 2816 0
-2779 -2814 2816 0
-2744 -2814 2816 0
2744 2779 -2816 0
2779 2814 -2816 0
2744 2814 -2816 0
2743 2778 -2819 0
-2743 -2778 -2819 0
-2743 2778 2819 0
2743 -2778 2819 0
2819 2816 -2791 0
-2819 -2816 -2791 0
-2819 2816 2791 0
2819 -2816 2791 0
-2743 -2778 2818 0
-2778 -2816 2818 0
-2743 -2816 2818 0
2743 2778 -2818 0
2778 2816 -2818 0
2743 2816 -2818 0
2742 2777 -2821 0
-2742 -2777 -2821 0
-2742 2777 2821 0
2742 -2777 2821 0
2821 2818 -2790 0
-2821 -2818 -2790 0
-2821 2818 2790 0
2821 -2818 2790 0
-2742 -2777 2820 0
-2777 -2818 2820 0
-2742 -2818 2820 0
2742 2777 -2820 0
2777 2818 -2820 0
2742 2818 -2820 0
2741 2776 -2822 0
-2741 -2776 -2822 0
-2741 2776 2822 0
2741 -2776 2822 0
2822 2820 -2789 0
-2822 -2820 -2789 0
-2822 2820 2789 0
2822 -2820 2789 0
-2741 -2776 2788 0
-2776 -2820 2788 0
-2741 -2820 2788 0
2741 2776 -2788 0
2776 2820 -2788 0
2741 2820 -2788 0
2378 -2823 0
2377 -2823 0
-2378 -2377 2823 0
2378 -2824 0
2378 -2824 0
-2378 -2378 2824 0
2378 -2825 0
2379 -2825 0
-2378 -2379 2825 0
2378 -2826 0
2380 -2826 0
-2378 -2380 2826 0
2378 -2827 0
2381 -2827 0
-2378 -2381 2827 0
2378 -2828 0
2382 -2828 0
-2378 -2382 2828 0
2378 -2829 0
2383 -2829 0
-2378 -2383 2829 0
2378 -2830 0
2384 -2830 0
-2378 -2384 2830 0
2378 -2831 0
2385 -2831 0
-2378 -2385 2831 0
2378 -2832 0
2386 -2832 0
-2378 -2386 2832 0
2378 -2833 0
2387 -2833 0
-2378 -2387 2833 0
2378 -2834 0
2388 -2834 0
-2378 -2388 2834 0
2799 2834 -2847 0
-2799 -2834 -2847 0
-2799 2834 2847 0
2799 -2834 2847 0
2799 -2848 0
2834 -2848 0
-2799 -2834 2848 0
2798 2833 -2850 0
-2798 -2833 -2850 0
-2798 2833 2850 0
2798 -2833 2850 0
2850 2848 -2846 0
-2850 -2848 -2846 0
-2850 2848 2846 0
2850 -2848 2846 0
-2798 -2833 2849 0
-2833 -2848 2849 0
-2798 -2848 2849 0
2798 2833 -2849 0
2833 2848 -2849 0
2798 2848 -2849 0
2797 2832 -2852 0
-2797 -2832 -2852 0
-2797 2832 2852 0
2797 -2832 2852 0
2852 2849 -2845 0
-2852 -2849 -2845 0
-2852 2849 2845 0
2852 -2849 2845 0
-2797 -2832 2851 0
-2832 -2849 2851 0
-2797 -2849 2851 0
2797 2832 -2851 0
2832 2849 -2851 0
2797 2849 -2851 0
2796 2831 -2854 0
-2796 -2831 -2854 0
-2796 2831 2854 0
2796 -2831 2854 0
2854 2851 -2844 0
-2854 -2851 -2844 0
-2854 2851 2844 0
2854 -2851 2844 0
-2796 -2831 2853 0
-2831 -2851 2853 0
-2796 -2851 2853 0
2796 2831 -2853 0
2831 2851 -2853 0
2796 2851 -2853 0
2795 2830 -2856 0
-2795 -2830 -2856 0
-2795 2830 2856 0
2795 -2830 2856 0
2856 2853 -2843 0
-2856 -2853 -2843 0
-2856 2853 2843 0
2856 -2853 2843 0
-2795 -2830 2855 0
-2830 -2853 2855 0
-2795 -2853 2855 0
2795 2830 -2855 0
2830 2853 -2855 0
2795 2853 -2855 0
2794 2829 -2858 0
-2794 -2829 -2858 0
-2794 2829 2858 0
2794 -2829 2858 0
2858 2855 -2842 0
-2858 -2855 -2842 0
-2858 2855 2842 0
2858 -2855 2842 0
-2794 -2829 2857 0
-2829 -2855 2857 0
-2794 -2855 2857 0
2794 2829 -2857 0
2829 2855 -2857 0
2794 2855 -2857 0
2793 2828 -2860 0
-2793 -2828 -2860 0
-2793 2828 2860 0
2793 -2828 2860 0
2860 2857 -2841 0
-2860 -2857 -2841 0
-2860 2857 2841 0
2860 -2857 2841 0
-2793 -2828 2859 0
-2828 -2857 2859 0
-2793 -2857 2859 0
2793 2828 -2859 0
2828 2857 -2859 0
2793 2857 -2859 0
2792 2827 -2862 0
-2792 -2827 -2862 0
-2792 2827 2862 0
2792 -2827 2862 0
2862 2859 -2840 0
-2862 -2859 -2840 0
-2862 2859 2840 0
2862 -2859 2840 0
-2792 -2827 2861 0
-2827 -2859 2861 0
-2792 -2859 2861 0
2792 2827 -2861 0
2827 2859 -2861 0
2792 2859 -2861 0
2791 2826 -2864 0
-2791 -2826 -2864 0
-2791 2826 2864 0
2791 -2826 2864 0
2864 2861 -2839 0
-2864 -2861 -2839 0
-2864 2861 2839 0
2864 -2861 2839 0
-2791 -2826 2863 0
-2826 -2861 2863 0
-2791 -2861 2863 0
2791 2826 -2863 0
2826 2861 -2863 0
2791 2861 -2863 0
2790 2825 -2866 0
-2790 -2825 -2866 0
-2790 2825 2866 0
2790 -2825 2866 0
2866 2863 -2838 0
-2866 -2863 -2838 0
-2866 2863 2838 0
2866 -2863 2838 0
-2790 -2825 2865 0
-2825 -2863 2865 0
-2790 -2863 2865 0
2790 2825 -2865 0
2825 2863 -2865 0
2790 2863 -2865 0
2789 2824 -2868 0
-2789 -2824 -2868 0
-2789 2824 2868 0
2789 -2824 2868 0
2868 2865 -2837 0
-2868 -2865 -2837 0
-2868 2865 2837 0
2868 -2865 2837 0
-2789 -2824 2867 0
-2824 -2865 2867 0
-2789 -2865 2867 0
2789 2824 -2867 0
2824 2865 -2867 0
2789 2865 -2867 0
2788 2823 -2869 0
-2788 -2823 -2869 0
-2788 2823 2869 0
2788 -2823 2869 0
2869 2867 -2836 0
-2869 -2867 -2836 0
-2869 2867 2836 0
2869 -2867 2836 0
-2788 -2823 2835 0
-2823 -2867 2835 0
-2788 -2867 2835 0
2788 2823 -2835 0
2823 2867 -2835 0
2788 2867 -2835 0
2377 -2870 0
2377 -2870 0
-2377 -2377 2870 0
2377 -2871 0
2378 -2871 0
-2377 -2378 2871 0
2377 -2872 0
2379 -2872 0
-2377 -2379 2872 0
2377 -2873 0
2380 -2873 0
-2377 -2380 2873 0
2377 -2874 0
2381 -2874 0
-2377 -2381 2874 0
2377 -2875 0
2382 -2875 0
-2377 -2382 2875 0
2377 -2876 0
2383 -2876 0
-2377 -2383 2876 0
2377 -2877 0
2384 -2877 0
-2377 -2384 2877 0
2377 -2878 0
2385 -2878 0
-2377 -2385 2878 0
2377 -2879 0
2386 -2879 0
-2377 -2386 2879 0
2377 -2880 0
2387 -2880 0
-2377 -2387 2880 0
2377 -2881 0
2388 -2881 0
-2377 -2388 2881 0
2846 2881 -2894 0
-2846 -2881 -2894 0
-2846 2881 2894 0
2846 -2881 2894 0
2846 -2895 0
2881 -2895 0
-2846 -2881 2895 0
2845 2880 -2897 0
-2845 -2880 -2897 0
-2845 2880 2897 0
2845 -2880 2897 0
2897 2895 -2893 0
-2897 -2895 -2893 0
-2897 2895 2893 0
2897 -2895 2893 0
-2845 -2880 2896 0
-2880 -2895 2896 0
-2845 -2895 2896 0
2845 2880 -2896 0
2880 2895 -2896 0
2845 2895 -2896 0
2844 2879 -2899 0
-2844 -2879 -2899 0
-2844 2879 2899 0
2844 -2879 2899 0
2899 2896 -2892 0
-2899 -2896 -2892 0
-2899 2896 2892 0
2899 -2896 2892 0
-2844 -2879 2898 0
-2879 -2896 2898 0
-2844 -2896 2898 0
2844 2879 -2898 0
2879 2896 -2898 0
2844 2896 -2898 0
2843 2878 -2901 0
-2843 -2878 -2901 0
-2843 2878 2901 0
2843 -2878 2901 0
2901 2898 -2891 0
-2901 -2898 -2891 0
-2901 2898 2891 0
2901 -2898 2891 0
-2843 -2878 2900 0
-2878 -2898 2900 0
-2843 -2898 2900 0
2843 2878 -2900 0
2878 2898 -2900 0
2843 2898 -2900 0
2842 2877 -2903 0
-2842 -2877 -2903 0
-2842 2877 2903 0
2842 -2877 2903 0
2903 2900 -2890 0
-2903 -2900 -2890 0
-2903 2900 2890 0
2903 -2900 2890 0
-2842 -2877 2902 0
-2877 -2900 2902 0
-2842 -2900 2902 0
2842 2877 -2902 0
2877 2900 -2902 0
2842 2900 -2902 0
2841 2876 -2905 0
-2841 -2876 -2905 0
-2841 2876 2905 0
2841 -2876 2905 0
2905 2902 -2889 0
-2905 -2902 -2889 0
-2905 2902 2889 0
2905 -2902 2889 0
-2841 -2876 2904 0
-2876 -2902 2904 0
-2841 -2902 2904 0
2841 2876 -2904 0
2876 2902 -2904 0
2841 2902 -2904 0
2840 2875 -2907 0
-2840 -2875 -2907 0
-2840 2875 2907 0
2840 -2875 2907 0
2907 2904 -2888 0
-2907 -2904 -2888 0
-2907 2904 2888 0
2907 -2904 2888 0
-2840 -2875 2906 0
-2875 -2904 2906 0
-2840 -2904 2906 0
2840 2875 -2906 0
2875 2904 -2906 0
2840 2904 -2906 0
2839 2874 -2909 0
-2839 -2874 -2909 0
-2839 2874 2909 0
2839 -2874 2909 0
2909 2906 -2887 0
-2909 -2906 -2887 0
-2909 2906 2887 0
2909 -2906 2887 0
-2839 -2874 2908 0
-2874 -2906 2908 0
-2839 -2906 2908 0
2839 2874 -2908 0
2874 2906 -2908 0
2839 2906 -2908 0
2838 2873 -2911 0
-2838 -2873 -2911 0
-2838 2873 2911 0
2838 -2873 2911 0
2911 2908 -2886 0
-2911 -2908 -2886 0
-2911 2908 2886 0
2911 -2908 2886 0
-2838 -2873 2910 0
-2873 -2908 2910 0
-2838 -2908 2910 0
2838 2873 -2910 0
2873 2908 -2910 0
2838 2908 -2910 0
2837 2872 -2913 0
-2837 -2872 -2913 0
-2837 2872 2913 0
2837 -2872 2913 0
2913 2910 -2885 0
-2913 -2910 -2885 0
-2913 2910 2885 0
2913 -2910 2885 0
-2837 -2872 2912 0
-2872 -2910 2912 0
-2837 -2910 2912 0
2837 2872 -2912 0
2872 2910 -2912 0
2837 2910 -2912 0
2836 2871 -2915 0
-2836 -2871 -2915 0
-2836 2871 2915 0
2836 -2871 2915 0
2915 2912 -2884 0
-2915 -2912 -2884 0
-2915 2912 2884 0
2915 -2912 2884 0
-2836 -2871 2914 0
-2871 -2912 2914 0
-2836 -2912 2914 0
2836 2871 -2914 0
2871 2912 -2914 0
2836 2912 -2914 0
2835 2870 -2916 0
-2835 -2870 -2916 0
-2835 2870 2916 0
2835 -2870 2916 0
2916 2914 -2883 0
-2916 -2914 -2883 0
-2916 2914 2883 0
2916 -2914 2883 0
-2835 -2870 2882 0
-2870 -2914 2882 0
-2835 -2914 2882 0
2835 2870 -2882 0
2870 2914 -2882 0
2835 2914 -2882 0
2882 -97 0
-2882 97 0
2883 -98 0
-2883 98 0
2884 -99 0
-2884 99 0
2885 -100 0
-2885 100 0
2886 -101 0
-2886 101 0
2887 -102 0
-2887 102 0
2888 -103 0
-2888 103 0
2889 -104 0
-2889 104 0
2890 -105 0
-2890 105 0
2891 -106 0
-2891 106 0
2892 -107 0
-2892 107 0
2893 -108 0
-2893 108 0
2894 -109 0
-2894 109 0
2847 -110 0
-2847 110 0
2800 -111 0
-2800 111 0
2753 -112 0
-2753 112 0
2706 -113 0
-2706 113 0
2659 -114 0
-2659 114 0
2612 -115 0
-2612 115 0
2565 -116 0
-2565 116 0
2518 -117 0
-2518 117 0
2471 -118 0
-2471 118 0
2425 -119 0
-2425 119 0
2400 -120 0
-2400 120 0
121 122 123 124 125 126 127 128 129 130 131 132 133 134 135 136 137 138 139 140 141 142 143 144 0
2928 -2929 0
2917 -2929 0
-2928 -2917 2929 0
2928 -2930 0
2918 -2930 0
-2928 -2918 2930 0
2928 -2931 0
2919 -2931 0
-2928 -2919 2931 0
2928 -2932 0
2920 -2932 0
-2928 -2920 2932 0
2928 -2933 0
2921 -2933 0
-2928 -2921 2933 0
2928 -2934 0
2922 -2934 0
-2928 -2922 2934 0
2928 -2935 0
2923 -2935 0
-2928 -2923 2935 0
2928 -2936 0
2924 -2936 0
-2928 -2924 2936 0
2928 -2937 0
2925 -2937 0
-2928 -2925 2937 0
2928 -2938 0
2926 -2938 0
-2928 -2926 2938 0
2928 -2939 0
2927 -2939 0
-2928 -2927 2939 0
2928 -2940 0
2928 -2940 0
-2928 -2928 2940 0
2927 -2941 0
2917 -2941 0
-2927 -2917 2941 0
2927 -2942 0
2918 -2942 0
-2927 -2918 2942 0
2927 -2943 0
2919 -2943 0
-2927 -2919 2943 0
2927 -2944 0
2920 -2944 0
-2927 -2920 2944 0
2927 -2945 0
2921 -2945 0
-2927 -2921 2945 0
2927 -2946 0
2922 -2946 0
-2927 -2922 2946 0
2927 -2947 0
2923 -2947 0
-2927 -2923 2947 0
2927 -2948 0
2924 -2948 0
-2927 -2924 2948 0
2927 -2949 0
2925 -2949 0
-2927 -2925 2949 0
2927 -2950 0
2926 -2950 0
-2927 -2926 2950 0
2927 -2951 0
2927 -2951 0
-2927 -2927 2951 0
2927 -2952 0
2928 -2952 0
-2927 -2928 2952 0
2939 2952 -2965 0
-2939 -2952 -2965 0
-2939 2952 2965 0
2939 -2952 2965 0
2939 -2966 0
2952 -2966 0
-2939 -2952 2966 0
2938 2951 -2968 0
-2938 -2951 -2968 0
-2938 2951 2968 0
2938 -2951 2968 0
2968 2966 -2964 0
-2968 -2966 -2964 0
-2968 2966 2964 0
2968 -2966 2964 0
-2938 -2951 2967 0
-2951 -2966 2967 0
-2938 -2966 2967 0
2938 2951 -2967 0
2951 2966 -2967 0
2938 2966 -2967 0
2937 2950 -2970 0
-2937 -2950 -2970 0
-2937 2950 2970 0
2937 -2950 2970 0
2970 2967 -2963 0
-2970 -2967 -2963 0
-2970 2967 2963 0
2970 -2967 2963 0
-2937 -2950 2969 0
-2950 -2967 2969 0
-2937 -2967 2969 0
2937 2950 -2969 0
2950 2967 -2969 0
2937 2967 -2969 0
2936 2949 -2972 0
-2936 -2949 -2972 0
-2936 2949 2972 0
2936 -2949 2972 0
2972 2969 -2962 0
-2972 -2969 -2962 0
-2972 2969 2962 0
2972 -2969 2962 0
-2936 -2949 2971 0
-2949 -2969 2971 0
-2936 -2969 2971 0
2936 2949 -2971 0
2949 2969 -2971 0
2936 2969 -2971 0
2935 2948 -2974 0
-2935 -2948 -2974 0
-2935 2948 2974 0
2935 -2948 2974 0
2974 2971 -2961 0
-2974 -2971 -2961 0
-2974 2971 2961 0
2974 -2971 2961 0
-2935 -2948 2973 0
-2948 -2971 2973 0
-2935 -2971 2973 0
2935 2948 -2973 0
2948 2971 -2973 0
2935 2971 -2973 0
2934 2947 -2976 0
-2934 -2947 -2976 0
-2934 2947 2976 0
2934 -2947 2976 0
2976 2973 -2960 0
-2976 -2973 -2960 0
-2976 2973 2960 0
2976 -2973 2960 0
-2934 -2947 2975 0
-2947 -2973 2975 0
-2934 -2973 2975 0
2934 2947 -2975 0
2947 2973 -2975 0
2934 2973 -2975 0
2933 2946 -2978 0
-2933 -2946 -2978 0
-2933 2946 2978 0
2933 -2946 2978 0
2978 2975 -2959 0
-2978 -2975 -2959 0
-2978 2975 2959 0
2978 -2975 2959 0
-2933 -2946 2977 0
-2946 -2975 2977 0
-2933 -2975 2977 0
2933 2946 -2977 0
2946 2975 -2977 0
2933 2975 -2977 0
2932 2945 -2980 0
-2932 -2945 -2980 0
-2932 2945 2980 0
2932 -2945 2980 0
2980 2977 -2958 0
-2980 -2977 -2958 0
-2980 2977 2958 0
2980 -2977 2958 0
-2932 -2945 2979 0
-2945 -2977 2979 0
-2932 -2977 2979 0
2932 2945 -2979 0
2945 2977 -2979 0
2932 2977 -2979 0
2931 2944 -2982 0
-2931 -2944 -2982 0
-2931 2944 2982 0
2931 -2944 2982 0
2982 2979 -2957 0
-2982 -2979 -2957 0
-2982 2979 2957 0
2982 -2979 2957 0
-2931 -2944 2981 0
-2944 -2979 2981 0
-2931 -2979 2981 0
2931 2944 -2981 0
2944 2979 -2981 0
2931 2979 -2981 0
2930 2943 -2984 0
-2930 -2943 -2984 0
-2930 2943 2984 0
2930 -2943 2984 0
2984 2981 -2956 0
-2984 -2981 -2956 0
-2984 2981 2956 0
2984 -2981 2956 0
-2930 -2943 2983 0
-2943 -2981 2983 0
-2930 -2981 2983 0
2930 2943 -2983 0
2943 2981 -2983 0
2930 2981 -2983 0
2929 2942 -2986 0
-2929 -2942 -2986 0
-2929 2942 2986 0
2929 -2942 2986 0
2986 2983 -2955 0
-2986 -2983 -2955 0
-2986 2983 2955 0
2986 -2983 2955 0
-2929 -2942 2985 0
-2942 -2983 2985 0
-2929 -2983 2985 0
2929 2942 -2985 0
2942 2983 -2985 0
2929 2983 -2985 0
2941 2985 -2954 0
-2941 -2985 -2954 0
-2941 2985 2954 0
2941 -2985 2954 0
2941 -2953 0
2985 -2953 0
-2941 -2985 2953 0
2926 -2987 0
2917 -2987 0
-2926 -2917 2987 0
2926 -2988 0
2918 -2988 0
-2926 -2918 2988 0
2926 -2989 0
2919 -2989 0
-2926 -2919 2989 0
2926 -2990 0
2920 -2990 0
-2926 -2920 2990 0
2926 -2991 0
2921 -2991 0
-2926 -2921 2991 0
2926 -2992 0
2922 -2992 0
-2926 -2922 2992 0
2926 -2993 0
2923 -2993 0
-2926 -2923 2993 0
2926 -2994 0
2924 -2994 0
-2926 -2924 2994 0
2926 -2995 0
2925 -2995 0
-2926 -2925 2995 0
2926 -2996 0
2926 -2996 0
-2926 -2926 2996 0
2926 -2997 0
2927 -2997 0
-2926 -2927 2997 0
2926 -2998 0
2928 -2998 0
-2926 -2928 2998 0
2964 2998 -3011 0
-2964 -2998 -3011 0
-2964 2998 3011 0
2964 -2998 3011 0
2964 -3012 0
2998 -3012 0
-2964 -2998 3012 0
2963 2997 -3014 0
-2963 -2997 -3014 0
-2963 2997 3014 0
2963 -2997 3014 0
3014 3012 -3010 0
-3014 -3012 -3010 0
-3014 3012 3010 0
3014 -3012 3010 0
-2963 -2997 3013 0
-2997 -3012 3013 0
-2963 -3012 3013 0
2963 2997 -3013 0
2997 3012 -3013 0
2963 3012 -3013 0
2962 2996 -3016 0
-2962 -2996 -3016 0
-2962 2996 3016 0
2962 -2996 3016 0
3016 3013 -3009 0
-3016 -3013 -3009 0
-3016 3013 3009 0
3016 -3013 3009 0
-2962 -2996 3015 0
-2996 -3013 3015 0
-2962 -3013 3015 0
2962 2996 -3015 0
2996 3013 -3015 0
2962 3013 -3015 0
2961 2995 -3018 0
-2961 -2995 -3018 0
-2961 2995 3018 0
2961 -2995 3018 0
3018 3015 -3008 0
-3018 -3015 -3008 0
-3018 3015 3008 0
3018 -3015 3008 0
-2961 -2995 3017 0
-2995 -3015 3017 0
-2961 -3015 3017 0
2961 2995 -3017 0
2995 3015 -3017 0
2961 3015 -3017 0
2960 2994 -3020 0
-2960 -2994 -3020 0
-2960 2994 3020 0
2960 -2994 3020 0
3020 3017 -3007 0
-3020 -3017 -3007 0
-3020 3017 3007 0
3020 -3017 3007 0
-2960 -2994 3019 0
-2994 -3017 3019 0
-2960 -3017 3019 0
2960 2994 -3019 0
2994 3017 -3019 0
2960 3017 -3019 0
2959 2993 -3022 0
-2959 -2993 -3022 0
-2959 2993 3022 0
2959 -2993 3022 0
3022 3019 -3006 0
-3022 -3019 -3006 0
-3022 3019 3006 0
3022 -3019 3006 0
-2959 -2993 3021 0
-2993 -3019 3021 0
-2959 -3019 3021 0
2959 2993 -3021 0
2993 3019 -3021 0
2959 3019 -3021 0
2958 2992 -3024 0
-2958 -2992 -3024 0
-2958 2992 3024 0
2958 -2992 3024 0
3024 3021 -3005 0
-3024 -3021 -3005 0
-3024 3021 3005 0
3024 -3021 3005 0
-2958 -2992 3023 0
-2992 -3021 3023 0
-2958 -3021 3023 0
2958 2992 -3023 0
2992 3021 -3023 0
2958 3021 -3023 0
2957 2991 -3026 0
-2957 -2991 -3026 0
-2957 2991 3026 0
2957 -2991 3026 0
3026 3023 -3004 0
-3026 -3023 -3004 0
-3026 3023 3004 0
3026 -3023 3004 0
-2957 -2991 3025 0
-2991 -3023 3025 0
-2957 -3023 3025 0
2957 2991 -3025 0
2991 3023 -3025 0
2957 3023 -3025 0
2956 2990 -3028 0
-2956 -2990 -3028 0
-2956 2990 3028 0
2956 -2990 3028 0
3028 3025 -3003 0
-3028 -3025 -3003 0
-3028 3025 3003 0
3028 -3025 3003 0
-2956 -2990 3027 0
-2990 -3025 3027 0
-2956 -3025 3027 0
2956 2990 -3027 0
2990 3025 -3027 0
2956 3025 -3027 0
2955 2989 -3030 0
-2955 -2989 -3030 0
-2955 2989 3030 0
2955 -2989 3030 0
3030 3027 -3002 0
-3030 -3027 -3002 0
-3030 3027 3002 0
3030 -3027 3002 0
-2955 -2989 3029 0
-2989 -3027 3029 0
-2955 -3027 3029 0
2955 2989 -3029 0
2989 3027 -3029 0
2955 3027 -3029 0
2954 2988 -3032 0
-2954 -2988 -3032 0
-2954 2988 3032 0
2954 -2988 3032 0
3032 3029 -3001 0
-3032 -3029 -3001 0
-3032 3029 3001 0
3032 -3029 3001 0
-2954 -2988 3031 0
-2988 -3029 3031 0
-2954 -3029 3031 0
2954 2988 -3031 0
2988 3029 -3031 0
2954 3029 -3031 0
2953 2987 -3033 0
-2953 -2987 -3033 0
-2953 2987 3033 0
2953 -2987 3033 0
3033 3031 -3000 0
-3033 -3031 -3000 0
-3033 3031 3000 0
3033 -3031 3000 0
-2953 -2987 2999 0
-2987 -3031 2999 0
-2953 -3031 2999 0
2953 2987 -2999 0
2987 3031 -2999 0
2953 3031 -2999 0
2925 -3034 0
2917 -3034 0
-2925 -2917 3034 0
2925 -3035 0
2918 -3035 0
-2925 -2918 3035 0
2925 -3036 0
2919 -3036 0
-2925 -2919 3036 0
2925 -3037 0
2920 -3037 0
-2925 -2920 3037 0
2925 -3038 0
2921 -3038 0
-2925 -2921 3038 0
2925 -3039 0
2922 -3039 0
-2925 -2922 3039 0
2925 -3040 0
2923 -3040 0
-2925 -2923 3040 0
2925 -3041 0
2924 -3041 0
-2925 -2924 3041 0
2925 -3042 0
2925 -3042 0
-2925 -2925 3042 0
2925 -3043 0
2926 -3043 0
-2925 -2926 3043 0
2925 -3044 0
2927 -3044 0
-2925 -2927 3044 0
2925 -3045 0
2928 -3045 0
-2925 -2928 3045 0
3010 3045 -3058 0
-3010 -3045 -3058 0
-3010 3045 3058 0
3010 -3045 3058 0
3010 -3059 0
3045 -3059 0
-3010 -3045 3059 0
3009 3044 -3061 0
-3009 -3044 -3061 0
-3009 3044 3061 0
3009 -3044 3061 0
3061 3059 -3057 0
-3061 -3059 -3057 0
-3061 3059 3057 0
3061 -3059 3057 0
-3009 -3044 3060 0
-3044 -3059 3060 0
-3009 -3059 3060 0
3009 3044 -3060 0
3044 3059 -3060 0
3009 3059 -3060 0
3008 3043 -3063 0
-3008 -3043 -3063 0
-3008 3043 3063 0
3008 -3043 3063 0
3063 3060 -3056 0
-3063 -3060 -3056 0
-3063 3060 3056 0
3063 -3060 3056 0
-3008 -3043 3062 0
-3043 -3060 3062 0
-3008 -3060 3062 0
3008 3043 -3062 0
3043 3060 -3062 0
3008 3060 -3062 0
3007 3042 -3065 0
-3007 -3042 -3065 0
-3007 3042 3065 0
3007 -3042 3065 0
3065 3062 -3055 0
-3065 -3062 -3055 0
-3065 3062 3055 0
3065 -3062 3055 0
-3007 -3042 3064 0
-3042 -3062 3064 0
-3007 -3062 3064 0
3007 3042 -3064 0
3042 3062 -3064 0
3007 3062 -3064 0
3006 3041 -3067 0
-3006 -3041 -3067 0
-3006 3041 3067 0
3006 -3041 3067 0
3067 3064 -3054 0
-3067 -3064 -3054 0
-3067 3064 3054 0
3067 -3064 3054 0
-3006 -3041 3066 0
-3041 -3064 3066 0
-3006 -3064 3066 0
3006 3041 -3066 0
3041 3064 -3066 0
3006 3064 -3066 0
3005 3040 -3069 0
-3005 -3040 -3069 0
-3005 3040 3069 0
3005 -3040 3069 0
3069 3066 -3053 0
-3069 -3066 -3053 0
-3069 3066 3053 0
3069 -3066 3053 0
-3005 -3040 3068 0
-3040 -3066 3068 0
-3005 -3066 3068 0
3005 3040 -3068 0
3040 3066 -3068 0
3005 3066 -3068 0
3004 3039 -3071 0
-3004 -3039 -3071 0
-3004 3039 3071 0
3004 -3039 3071 0
3071 3068 -3052 0
-3071 -3068 -3052 0
-3071 3068 3052 0
3071 -3068 3052 0
-3004 -3039 3070 0
-3039 -3068 3070 0
-3004 -3068 3070 0
3004 3039 -3070 0
3039 3068 -3070 0
3004 3068 -3070 0
3003 3038 -3073 0
-3003 -3038 -3073 0
-3003 3038 3073 0
3003 -3038 3073 0
3073 3070 -3051 0
-3073 -3070 -3051 0
-3073 3070 3051 0
3073 -3070 3051 0
-3003 -3038 3072 0
-3038 -3070 3072 0
-3003 -3070 3072 0
3003 3038 -3072 0
3038 3070 -3072 0
3003 3070 -3072 0
3002 3037 -3075 0
-3002 -3037 -3075 0
-3002 3037 3075 0
3002 -3037 3075 0
3075 3072 -3050 0
-3075 -3072 -3050 0
-3075 3072 3050 0
3075 -3072 3050 0
-3002 -3037 3074 0
-3037 -3072 3074 0
-3002 -3072 3074 0
3002 3037 -3074 0
3037 3072 -3074 0
3002 3072 -3074 0
3001 3036 -3077 0
-3001 -3036 -3077 0
-3001 3036 3077 0
3001 -3036 3077 0
3077 3074 -3049 0
-3077 -3074 -3049 0
-3077 3074 3049 0
3077 -3074 3049 0
-3001 -3036 3076 0
-3036 -3074 3076 0
-3001 -3074 3076 0
3001 3036 -3076 0
3036 3074 -3076 0
3001 3074 -3076 0
3000 3035 -3079 0
-3000 -3035 -3079 0
-3000 3035 3079 0
3000 -3035 3079 0
3079 3076 -3048 0
-3079 -3076 -3048 0
-3079 3076 3048 0
3079 -3076 3048 0
-3000 -3035 3078 0
-3035 -3076 3078 0
-3000 -3076 3078 0
3000 3035 -3078 0
3035 3076 -3078 0
3000 3076 -3078 0
2999 3034 -3080 0
-2999 -3034 -3080 0
-2999 3034 3080 0
2999 -3034 3080 0
3080 3078 -3047 0
-3080 -3078 -3047 0
-3080 3078 3047 0
3080 -3078 3047 0
-2999 -3034 3046 0
-3034 -3078 3046 0
-2999 -3078 3046 0
2999 3034 -3046 0
3034 3078 -3046 0
2999 3078 -3046 0
2924 -3081 0
2917 -3081 0
-2924 -2917 3081 0
2924 -3082 0
2918 -3082 0
-2924 -2918 3082 0
2924 -3083 0
2919 -3083 0
-2924 -2919 3083 0
2924 -3084 0
2920 -3084 0
-2924 -2920 3084 0
2924 -3085 0
2921 -3085 0
-2924 -2921 3085 0
2924 -3086 0
2922 -3086 0
-2924 -2922 3086 0
2924 -3087 0
2923 -3087 0
-2924 -2923 3087 0
2924 -3088 0
2924 -3088 0
-2924 -2924 3088 0
2924 -3089 0
2925 -3089 0
-2924 -2925 3089 0
2924 -3090 0
2926 -3090 0
-2924 -2926 3090 0
2924 -3091 0
2927 -3091 0
-2924 -2927 3091 0
2924 -3092 0
2928 -3092 0
-2924 -2928 3092 0
3057 3092 -3105 0
-3057 -3092 -3105 0
-3057 3092 3105 0
3057 -3092 3105 0
3057 -3106 0
3092 -3106 0
-3057 -3092 3106 0
3056 3091 -3108 0
-3056 -3091 -3108 0
-3056 3091 3108 0
3056 -3091 3108 0
3108 3106 -3104 0
-3108 -3106 -3104 0
-3108 3106 3104 0
3108 -3106 3104 0
-3056 -3091 3107 0
-3091 -3106 3107 0
-3056 -3106 3107 0
3056 3091 -3107 0
3091 3106 -3107 0
3056 3106 -3107 0
3055 3090 -3110 0
-3055 -3090 -3110 0
-3055 3090 3110 0
3055 -3090 3110 0
3110 3107 -3103 0
-3110 -3107 -3103 0
-3110 3107 3103 0
3110 -3107 3103 0
-3055 -3090 3109 0
-3090 -3107 3109 0
-3055 -3107 3109 0
3055 3090 -3109 0
3090 3107 -3109 0
3055 3107 -3109 0
3054 3089 -3112 0
-3054 -3089 -3112 0
-3054 3089 3112 0
3054 -3089 3112 0
3112 3109 -3102 0
-3112 -3109 -3102 0
-3112 3109 3102 0
3112 -3109 3102 0
-3054 -3089 3111 0
-3089 -3109 3111 0
-3054 -3109 3111 0
3054 3089 -3111 0
3089 3109 -3111 0
3054 3109 -3111 0
3053 3088 -3114 0
-3053 -3088 -3114 0
-3053 3088 3114 0
3053 -3088 3114 0
3114 3111 -3101 0
-3114 -3111 -3101 0
-3114 3111 3101 0
3114 -3111 3101 0
-3053 -3088 3113 0
-3088 -3111 3113 0
-3053 -3111 3113 0
3053 3088 -3113 0
3088 3111 -3113 0
3053 3111 -3113 0
3052 3087 -3116 0
-3052 -3087 -3116 0
-3052 3087 3116 0
3052 -3087 3116 0
3116 3113 -3100 0
-3116 -3113 -3100 0
-3116 3113 3100 0
3116 -3113 3100 0
-3052 -3087 3115 0
-3087 -3113 3115 0
-3052 -3113 3115 0
3052 3087 -3115 0
3087 3113 -3115 0
3052 3113 -3115 0
3051 3086 -3118 0
-3051 -3086 -3118 0
-3051 3086 3118 0
3051 -3086 3118 0
3118 3115 -3099 0
-3118 -3115 -3099 0
-3118 3115 3099 0
3118 -3115 3099 0
-3051 -3086 3117 0
-3086 -3115 3117 0
-3051 -3115 3117 0
3051 3086 -3117 0
3086 3115 -3117 0
3051 3115 -3117 0
3050 3085 -3120 0
-3050 -3085 -3120 0
-3050 3085 3120 0
3050 -3085 3120 0
3120 3117 -3098 0
-3120 -3117 -3098 0
-3120 3117 3098 0
3120 -3117 3098 0
-3050 -3085 3119 0
-3085 -3117 3119 0
-3050 -3117 3119 0
3050 3085 -3119 0
3085 3117 -3119 0
3050 3117 -3119 0
3049 3084 -3122 0
-3049 -3084 -3122 0
-3049 3084 3122 0
3049 -3084 3122 0
3122 3119 -3097 0
-3122 -3119 -3097 0
-3122 3119 3097 0
3122 -3119 3097 0
-3049 -3084 3121 0
-3084 -3119 3121 0
-3049 -3119 3121 0
3049 3084 -3121 0
3084 3119 -3121 0
3049 3119 -3121 0
3048 3083 -3124 0
-3048 -3083 -3124 0
-3048 3083 3124 0
3048 -3083 3124 0
3124 3121 -3096 0
-3124 -3121 -3096 0
-3124 3121 3096 0
3124 -3121 3096 0
-3048 -3083 3123 0
-3083 -3121 3123 0
-3048 -3121 3123 0
3048 3083 -3123 0
3083 3121 -3123 0
3048 3121 -3123 0
3047 3082 -3126 0
-3047 -3082 -3126 0
-3047 3082 3126 0
3047 -3082 3126 0
3126 3123 -3095 0
-3126 -3123 -3095 0
-3126 3123 3095 0
3126 -3123 3095 0
-3047 -3082 3125 0
-3082 -3123 3125 0
-3047 -3123 3125 0
3047 3082 -3125 0
3082 3123 -3125 0
3047 3123 -3125 0
3046 3081 -3127 0
-3046 -3081 -3127 0
-3046 3081 3127 0
3046 -3081 3127 0
3127 3125 -3094 0
-3127 -3125 -3094 0
-3127 3125 3094 0
3127 -3125 3094 0
-3046 -3081 3093 0
-3081 -3125 3093 0
-3046 -3125 3093 0
3046 3081 -3093 0
3081 3125 -3093 0
3046 3125 -3093 0
2923 -3128 0
2917 -3128 0
-2923 -2917 3128 0
2923 -3129 0
2918 -3129 0
-2923 -2918 3129 0
2923 -3130 0
2919 -3130 0
-2923 -2919 3130 0
2923 -3131 0
2920 -3131 0
-2923 -2920 3131 0
2923 -3132 0
2921 -3132 0
-2923 -2921 3132 0
2923 -3133 0
2922 -3133 0
-2923 -2922 3133 0
2923 -3134 0
2923 -3134 0
-2923 -2923 3134 0
2923 -3135 0
2924 -3135 0
-2923 -2924 3135 0
2923 -3136 0
2925 -3136 0
-2923 -2925 3136 0
2923 -3137 0
2926 -3137 0
-2923 -2926 3137 0
2923 -3138 0
2927 -3138 0
-2923 -2927 3138 0
2923 -3139 0
2928 -3139 0
-2923 -2928 3139 0
3104 3139 -3152 0
-3104 -3139 -3152 0
-3104 3139 3152 0
3104 -3139 3152 0
3104 -3153 0
3139 -3153 0
-3104 -3139 3153 0
3103 3138 -3155 0
-3103 -3138 -3155 0
-3103 3138 3155 0
3103 -3138 3155 0
3155 3153 -3151 0
-3155 -3153 -3151 0
-3155 3153 3151 0
3155 -3153 3151 0
-3103 -3138 3154 0
-3138 -3153 3154 0
-3103 -3153 3154 0
3103 3138 -3154 0
3138 3153 -3154 0
3103 3153 -3154 0
3102 3137 -3157 0
-3102 -3137 -3157 0
-3102 3137 3157 0
3102 -3137 3157 0
3157 3154 -3150 0
-3157 -3154 -3150 0
-3157 3154 3150 0
3157 -3154 3150 0
-3102 -3137 3156 0
-3137 -3154 3156 0
-3102 -3154 3156 0
3102 3137 -3156 0
3137 3154 -3156 0
3102 3154 -3156 0
3101 3136 -3159 0
-3101 -3136 -3159 0
-3101 3136 3159 0
3101 -3136 3159 0
3159 3156 -3149 0
-3159 -3156 -3149 0
-3159 3156 3149 0
3159 -3156 3149 0
-3101 -3136 3158 0
-3136 -3156 3158 0
-3101 -3156 3158 0
3101 3136 -3158 0
3136 3156 -3158 0
3101 3156 -3158 0
3100 3135 -3161 0
-3100 -3135 -3161 0
-3100 3135 3161 0
3100 -3135 3161 0
3161 3158 -3148 0
-3161 -3158 -3148 0
-3161 3158 3148 0
3161 -3158 3148 0
-3100 -3135 3160 0
-3135 -3158 3160 0
-3100 -3158 3160 0
3100 3135 -3160 0
3135 3158 -3160 0
3100 3158 -3160 0
3099 3134 -3163 0
-3099 -3134 -3163 0
-3099 3134 3163 0
3099 -3134 3163 0
3163 3160 -3147 0
-3163 -3160 -3147 0
-3163 3160 3147 0
3163 -3160 3147 0
-3099 -3134 3162 0
-3134 -3160 3162 0
-3099 -3160 3162 0
3099 3134 -3162 0
3134 3160 -3162 0
3099 3160 -3162 0
3098 3133 -3165 0
-3098 -3133 -3165 0
-3098 3133 3165 0
3098 -3133 3165 0
3165 3162 -3146 0
-3165 -3162 -3146 0
-3165 3162 3146 0
3165 -3162 3146 0
-3098 -3133 3164 0
-3133 -3162 3164 0
-3098 -3162 3164 0
3098 3133 -3164 0
3133 3162 -3164 0
3098 3162 -3164 0
3097 3132 -3167 0
-3097 -3132 -3167 0
-3097 3132 3167 0
3097 -3132 3167 0
3167 3164 -3145 0
-3167 -3164 -3145 0
-3167 3164 3145 0
3167 -3164 3145 0
-3097 -3132 3166 0
-3132 -3164 3166 0
-3097 -3164 3166 0
3097 3132 -3166 0
3132 3164 -3166 0
3097 3164 -3166 0
3096 3131 -3169 0
-3096 -3131 -3169 0
-3096 3131 3169 0
3096 -3131 3169 0
3169 3166 -3144 0
-3169 -3166 -3144 0
-3169 3166 3144 0
3169 -3166 3144 0
-3096 -3131 3168 0
-3131 -3166 3168 0
-3096 -3166 3168 0
3096 3131 -3168 0
3131 3166 -3168 0
3096 3166 -3168 0
3095 3130 -3171 0
-3095 -3130 -3171 0
-3095 3130 3171 0
3095 -3130 3171 0
3171 3168 -3143 0
-3171 -3168 -3143 0
-3171 3168 3143 0
3171 -3168 3143 0
-3095 -3130 3170 0
-3130 -3168 3170 0
-3095 -3168 3170 0
3095 3130 -3170 0
3130 3168 -3170 0
3095 3168 -3170 0
3094 3129 -3173 0
-3094 -3129 -3173 0
-3094 3129 3173 0
3094 -3129 3173 0
3173 3170 -3142 0
-3173 -3170 -3142 0
-3173 3170 3142 0
3173 -3170 3142 0
-3094 -3129 3172 0
-3129 -3170 3172 0
-3094 -3170 3172 0
3094 3129 -3172 0
3129 3170 -3172 0
3094 3170 -3172 0
3093 3128 -3174 0
-3093 -3128 -3174 0
-3093 3128 3174 0
3093 -3128 3174 0
3174 3172 -3141 0
-3174 -3172 -3141 0
-3174 3172 3141 0
3174 -3172 3141 0
-3093 -3128 3140 0
-3128 -3172 3140 0
-3093 -3172 3140 0
3093 3128 -3140 0
3128 3172 -3140 0
3093 3172 -3140 0
2922 -3175 0
2917 -3175 0
-2922 -2917 3175 0
2922 -3176 0
2918 -3176 0
-2922 -2918 3176 0
2922 -3177 0
2919 -3177 0
-2922 -2919 3177 0
2922 -3178 0
2920 -3178 0
-2922 -2920 3178 0
2922 -3179 0
2921 -3179 0
-2922 -2921 3179 0
2922 -3180 0
2922 -3180 0
-2922 -2922 3180 0
2922 -3181 0
2923 -3181 0
-2922 -2923 3181 0
2922 -3182 0
2924 -3182 0
-2922 -2924 3182 0
2922 -3183 0
2925 -3183 0
-2922 -2925 3183 0
2922 -3184 0
2926 -3184 0
-2922 -2926 3184 0
2922 -3185 0
2927 -3185 0
-2922 -2927 3185 0
2922 -3186 0
2928 -3186 0
-2922 -2928 3186 0
3151 3186 -3199 0
-3151 -3186 -3199 0
-3151 3186 3199 0
3151 -3186 3199 0
3151 -3200 0
3186 -3200 0
-3151 -3186 3200 0
3150 3185 -3202 0
-3150 -3185 -3202 0
-3150 3185 3202 0
3150 -3185 3202 0
3202 3200 -3198 0
-3202 -3200 -3198 0
-3202 3200 3198 0
3202 -3200 3198 0
-3150 -3185 3201 0
-3185 -3200 3201 0
-3150 -3200 3201 0
3150 3185 -3201 0
3185 3200 -3201 0
3150 3200 -3201 0
3149 3184 -3204 0
-3149 -3184 -3204 0
-3149 3184 3204 0
3149 -3184 3204 0
3204 3201 -3197 0
-3204 -3201 -3197 0
-3204 3201 3197 0
3204 -3201 3197 0
-3149 -3184 3203 0
-3184 -3201 3203 0
-3149 -3201 3203 0
3149 3184 -3203 0
3184 3201 -3203 0
3149 3201 -3203 0
3148 3183 -3206 0
-3148 -3183 -3206 0
-3148 3183 3206 0
3148 -3183 3206 0
3206 3203 -3196 0
-3206 -3203 -3196 0
-3206 3203 3196 0
3206 -3203 3196 0
-3148 -3183 3205 0
-3183 -3203 3205 0
-3148 -3203 3205 0
3148 3183 -3205 0
3183 3203 -3205 0
3148 3203 -3205 0
3147 3182 -3208 0
-3147 -3182 -3208 0
-3147 3182 3208 0
3147 -3182 3208 0
3208 3205 -3195 0
-3208 -3205 -3195 0
-3208 3205 3195 0
3208 -3205 3195 0
-3147 -3182 3207 0
-3182 -3205 3207 0
-3147 -3205 3207 0
3147 3182 -3207 0
3182 3205 -3207 0
3147 3205 -3207 0
3146 3181 -3210 0
-3146 -3181 -3210 0
-3146 3181 3210 0
3146 -3181 3210 0
3210 3207 -3194 0
-3210 -3207 -3194 0
-3210 3207 3194 0
3210 -3207 3194 0
-3146 -3181 3209 0
-3181 -3207 3209 0
-3146 -3207 3209 0
3146 3181 -3209 0
3181 3207 -3209 0
3146 3207 -3209 0
3145 3180 -3212 0
-3145 -3180 -3212 0
-3145 3180 3212 0
3145 -3180 3212 0
3212 3209 -3193 0
-3212 -3209 -3193 0
-3212 3209 3193 0
3212 -3209 3193 0
-3145 -3180 3211 0
-3180 -3209 3211 0
-3145 -3209 3211 0
3145 3180 -3211 0
3180 3209 -3211 0
3145 3209 -3211 0
3144 3179 -3214 0
-3144 -3179 -3214 0
-3144 3179 3214 0
3144 -3179 3214 0
3214 3211 -3192 0
-3214 -3211 -3192 0
-3214 3211 3192 0
3214 -3211 3192 0
-3144 -3179 3213 0
-3179 -3211 3213 0
-3144 -3211 3213 0
3144 3179 -3213 0
3179 3211 -3213 0
3144 3211 -3213 0
3143 3178 -3216 0
-3143 -3178 -3216 0
-3143 3178 3216 0
3143 -3178 3216 0
3216 3213 -3191 0
-3216 -3213 -3191 0
-3216 3213 3191 0
3216 -3213 3191 0
-3143 -3178 3215 0
-3178 -3213 3215 0
-3143 -3213 3215 0
3143 3178 -3215 0
3178 3213 -3215 0
3143 3213 -3215 0
3142 3177 -3218 0
-3142 -3177 -3218 0
-3142 3177 3218 0
3142 -3177 3218 0
3218 3215 -3190 0
-3218 -3215 -3190 0
-3218 3215 3190 0
3218 -3215 3190 0
-3142 -3177 3217 0
-3177 -3215 3217 0
-3142 -3215 3217 0
3142 3177 -3217 0
3177 3215 -3217 0
3142 3215 -3217 0
3141 3176 -3220 0
-3141 -3176 -3220 0
-3141 3176 3220 0
3141 -3176 3220 0
3220 3217 -3189 0
-3220 -3217 -3189 0
-3220 3217 3189 0
3220 -3217 3189 0
-3141 -3176 3219 0
-3176 -3217 3219 0
-3141 -3217 3219 0
3141 3176 -3219 0
3176 3217 -3219 0
3141 3217 -3219 0
3140 3175 -3221 0
-3140 -3175 -3221 0
-3140 3175 3221 0
3140 -3175 3221 0
3221 3219 -3188 0
-3221 -3219 -3188 0
-3221 3219 3188 0
3221 -3219 3188 0
-3140 -3175 3187 0
-3175 -3219 3187 0
-3140 -3219 3187 0
3140 3175 -3187 0
3175 3219 -3187 0
3140 3219 -3187 0
2921 -3222 0
2917 -3222 0
-2921 -2917 3222 0
2921 -3223 0
2918 -3223 0
-2921 -2918 3223 0
2921 -3224 0
2919 -3224 0
-2921 -2919 3224 0
2921 -3225 0
2920 -3225 0
-2921 -2920 3225 0
2921 -3226 0
2921 -3226 0
-2921 -2921 3226 0
2921 -3227 0
2922 -3227 0
-2921 -2922 3227 0
2921 -3228 0
2923 -3228 0
-2921 -2923 3228 0
2921 -3229 0
2924 -3229 0
-2921 -2924 3229 0
2921 -3230 0
2925 -3230 0
-2921 -2925 3230 0
2921 -3231 0
2926 -3231 0
-2921 -2926 3231 0
2921 -3232 0
2927 -3232 0
-2921 -2927 3232 0
2921 -3233 0
2928 -3233 0
-2921 -2928 3233 0
3198 3233 -3246 0
-3198 -3233 -3246 0
-3198 3233 3246 0
3198 -3233 3246 0
3198 -3247 0
3233 -3247 0
-3198 -3233 3247 0
3197 3232 -3249 0
-3197 -3232 -3249 0
-3197 3232 3249 0
3197 -3232 3249 0
3249 3247 -3245 0
-3249 -3247 -3245 0
-3249 3247 3245 0
3249 -3247 3245 0
-3197 -3232 3248 0
-3232 -3247 3248 0
-3197 -3247 3248 0
3197 3232 -3248 0
3232 3247 -3248 0
3197 3247 -3248 0
3196 3231 -3251 0
-3196 -3231 -3251 0
-3196 3231 3251 0
3196 -3231 3251 0
3251 3248 -3244 0
-3251 -3248 -3244 0
-3251 3248 3244 0
3251 -3248 3244 0
-3196 -3231 3250 0
-3231 -3248 3250 0
-3196 -3248 3250 0
3196 3231 -3250 0
3231 3248 -3250 0
3196 3248 -3250 0
3195 3230 -3253 0
-3195 -3230 -3253 0
-3195 3230 3253 0
3195 -3230 3253 0
3253 3250 -3243 0
-3253 -3250 -3243 0
-3253 3250 3243 0
3253 -3250 3243 0
-3195 -3230 3252 0
-3230 -3250 3252 0
-3195 -3250 3252 0
3195 3230 -3252 0
3230 3250 -3252 0
3195 3250 -3252 0
3194 3229 -3255 0
-3194 -3229 -3255 0
-3194 3229 3255 0
3194 -3229 3255 0
3255 3252 -3242 0
-3255 -3252 -3242 0
-3255 3252 3242 0
3255 -3252 3242 0
-3194 -3229 3254 0
-3229 -3252 3254 0
-3194 -3252 3254 0
3194 3229 -3254 0
3229 3252 -3254 0
3194 3252 -3254 0
3193 3228 -3257 0
-3193 -3228 -3257 0
-3193 3228 3257 0
3193 -3228 3257 0
3257 3254 -3241 0
-3257 -3254 -3241 0
-3257 3254 3241 0
3257 -3254 3241 0
-3193 -3228 3256 0
-3228 -3254 3256 0
-3193 -3254 3256 0
3193 3228 -3256 0
3228 3254 -3256 0
3193 3254 -3256 0
3192 3227 -3259 0
-3192 -3227 -3259 0
-3192 3227 3259 0
3192 -3227 3259 0
3259 3256 -3240 0
-3259 -3256 -3240 0
-3259 3256 3240 0
3259 -3256 3240 0
-3192 -3227 3258 0
-3227 -3256 3258 0
-3192 -3256 3258 0
3192 3227 -3258 0
3227 3256 -3258 0
3192 3256 -3258 0
3191 3226 -3261 0
-3191 -3226 -3261 0
-3191 3226 3261 0
3191 -3226 3261 0
3261 3258 -3239 0
-3261 -3258 -3239 0
-3261 3258 3239 0
3261 -3258 3239 0
-3191 -3226 3260 0
-3226 -3258 3260 0
-3191 -3258 3260 0
3191 3226 -3260 0
3226 3258 -3260 0
3191 3258 -3260 0
3190 3225 -3263 0
-3190 -3225 -3263 0
-3190 3225 3263 0
3190 -3225 3263 0
3263 3260 -3238 0
-3263 -3260 -3238 0
-3263 3260 3238 0
3263 -3260 3238 0
-3190 -3225 3262 0
-3225 -3260 3262 0
-3190 -3260 3262 0
3190 3225 -3262 0
3225 3260 -3262 0
3190 3260 -3262 0
3189 3224 -3265 0
-3189 -3224 -3265 0
-3189 3224 3265 0
3189 -3224 3265 0
3265 3262 -3237 0
-3265 -3262 -3237 0
-3265 3262 3237 0
3265 -3262 3237 0
-3189 -3224 3264 0
-3224 -3262 3264 0
-3189 -3262 3264 0
3189 3224 -3264 0
3224 3262 -3264 0
3189 3262 -3264 0
3188 3223 -3267 0
-3188 -3223 -3267 0
-3188 3223 3267 0
3188 -3223 3267 0
3267 3264 -3236 0
-3267 -3264 -3236 0
-3267 3264 3236 0
3267 -3264 3236 0
-3188 -3223 3266 0
-3223 -3264 3266 0
-3188 -3264 3266 0
3188 3223 -3266 0
3223 3264 -3266 0
3188 3264 -3266 0
3187 3222 -3268 0
-3187 -3222 -3268 0
-3187 3222 3268 0
3187 -3222 3268 0
3268 3266 -3235 0
-3268 -3266 -3235 0
-3268 3266 3235 0
3268 -3266 3235 0
-3187 -3222 3234 0
-3222 -3266 3234 0
-3187 -3266 3234 0
3187 3222 -3234 0
3222 3266 -3234 0
3187 3266 -3234 0
2920 -3269 0
2917 -3269 0
-2920 -2917 3269 0
2920 -3270 0
2918 -3270 0
-2920 -2918 3270 0
2920 -3271 0
2919 -3271 0
-2920 -2919 3271 0
2920 -3272 0
2920 -3272 0
-2920 -2920 3272 0
2920 -3273 0
2921 -3273 0
-2920 -2921 3273 0
2920 -3274 0
2922 -3274 0
-2920 -2922 3274 0
2920 -3275 0
2923 -3275 0
-2920 -2923 3275 0
2920 -3276 0
2924 -3276 0
-2920 -2924 3276 0
2920 -3277 0
2925 -3277 0
-2920 -2925 3277 0
2920 -3278 0
2926 -3278 0
-2920 -2926 3278 0
2920 -3279 0
2927 -3279 0
-2920 -2927 3279 0
2920 -3280 0
2928 -3280 0
-2920 -2928 3280 0
3245 3280 -3293 0
-3245 -3280 -3293 0
-3245 3280 3293 0
3245 -3280 3293 0
3245 -3294 0
3280 -3294 0
-3245 -3280 3294 0
3244 3279 -3296 0
-3244 -3279 -3296 0
-3244 3279 3296 0
3244 -3279 3296 0
3296 3294 -3292 0
-3296 -3294 -3292 0
-3296 3294 3292 0
3296 -3294 3292 0
-3244 -3279 3295 0
-3279 -3294 3295 0
-3244 -3294 3295 0
3244 3279 -3295 0
3279 3294 -3295 0
3244 3294 -3295 0
3243 3278 -3298 0
-3243 -3278 -3298 0
-3243 3278 3298 0
3243 -3278 3298 0
3298 3295 -3291 0
-3298 -3295 -3291 0
-3298 3295 3291 0
3298 -3295 3291 0
-3243 -3278 3297 0
-3278 -3295 3297 0
-3243 -3295 3297 0
3243 3278 -3297 0
3278 3295 -3297 0
3243 3295 -3297 0
3242 3277 -3300 0
-3242 -3277 -3300 0
-3242 3277 3300 0
3242 -3277 3300 0
3300 3297 -3290 0
-3300 -3297 -3290 0
-3300 3297 3290 0
3300 -3297 3290 0
-3242 -3277 3299 0
-3277 -3297 3299 0
-3242 -3297 3299 0
3242 3277 -3299 0
3277 3297 -3299 0
3242 3297 -3299 0
3241 3276 -3302 0
-3241 -3276 -3302 0
-3241 3276 3302 0
3241 -3276 3302 0
3302 3299 -3289 0
-3302 -3299 -3289 0
-3302 3299 3289 0
3302 -3299 3289 0
-3241 -3276 3301 0
-3276 -3299 3301 0
-3241 -3299 3301 0
3241 3276 -3301 0
3276 3299 -3301 0
3241 3299 -3301 0
3240 3275 -3304 0
-3240 -3275 -3304 0
-3240 3275 3304 0
3240 -3275 3304 0
3304 3301 -3288 0
-3304 -3301 -3288 0
-3304 3301 3288 0
3304 -3301 3288 0
-3240 -3275 3303 0
-3275 -3301 3303 0
-3240 -3301 3303 0
3240 3275 -3303 0
3275 3301 -3303 0
3240 3301 -3303 0
3239 3274 -3306 0
-3239 -3274 -3306 0
-3239 3274 3306 0
3239 -3274 3306 0
3306 3303 -3287 0
-3306 -3303 -3287 0
-3306 3303 3287 0
3306 -3303 3287 0
-3239 -3274 3305 0
-3274 -3303 3305 0
-3239 -3303 3305 0
3239 3274 -3305 0
3274 3303 -3305 0
3239 3303 -3305 0
3238 3273 -3308 0
-3238 -3273 -3308 0
-3238 3273 3308 0
3238 -3273 3308 0
3308 3305 -3286 0
-3308 -3305 -3286 0
-3308 3305 3286 0
3308 -3305 3286 0
-3238 -3273 3307 0
-3273 -3305 3307 0
-3238 -3305 3307 0
3238 3273 -3307 0
3273 3305 -3307 0
3238 3305 -3307 0
3237 3272 -3310 0
-3237 -3272 -3310 0
-3237 3272 3310 0
3237 -3272 3310 0
3310 3307 -3285 0
-3310 -3307 -3285 0
-3310 3307 3285 0
3310 -3307 3285 0
-3237 -3272 3309 0
-3272 -3307 3309 0
-3237 -3307 3309 0
3237 3272 -3309 0
3272 3307 -3309 0
3237 3307 -3309 0
3236 3271 -3312 0
-3236 -3271 -3312 0
-3236 3271 3312 0
3236 -3271 3312 0
3312 3309 -3284 0
-3312 -3309 -3284 0
-3312 3309 3284 0
3312 -3309 3284 0
-3236 -3271 3311 0
-3271 -3309 3311 0
-3236 -3309 3311 0
3236 3271 -3311 0
3271 3309 -3311 0
3236 3309 -3311 0
3235 3270 -3314 0
-3235 -3270 -3314 0
-3235 3270 3314 0
3235 -3270 3314 0
3314 3311 -3283 0
-3314 -3311 -3283 0
-3314 3311 3283 0
3314 -3311 3283 0
-3235 -3270 3313 0
-3270 -3311 3313 0
-3235 -3311 3313 0
3235 3270 -3313 0
3270 3311 -3313 0
3235 3311 -3313 0
3234 3269 -3315 0
-3234 -3269 -3315 0
-3234 3269 3315 0
3234 -3269 3315 0
3315 3313 -3282 0
-3315 -3313 -3282 0
-3315 3313 3282 0
3315 -3313 3282 0
-3234 -3269 3281 0
-3269 -3313 3281 0
-3234 -3313 3281 0
3234 3269 -3281 0
3269 3313 -3281 0
3234 3313 -3281 0
2919 -3316 0
2917 -3316 0
-2919 -2917 3316 0
2919 -3317 0
2918 -3317 0
-2919 -2918 3317 0
2919 -3318 0
2919 -3318 0
-2919 -2919 3318 0
2919 -3319 0
2920 -3319 0
-2919 -2920 3319 0
2919 -3320 0
2921 -3320 0
-2919 -2921 3320 0
2919 -3321 0
2922 -3321 0
-2919 -2922 3321 0
2919 -3322 0
2923 -3322 0
-2919 -2923 3322 0
2919 -3323 0
2924 -3323 0
-2919 -2924 3323 0
2919 -3324 0
2925 -3324 0
-2919 -2925 3324 0
2919 -3325 0
2926 -3325 0
-2919 -2926 3325 0
2919 -3326 0
2927 -3326 0
-2919 -2927 3326 0
2919 -3327 0
2928 -3327 0
-2919 -2928 3327 0
3292 3327 -3340 0
-3292 -3327 -3340 0
-3292 3327 3340 0
3292 -3327 3340 0
3292 -3341 0
3327 -3341 0
-3292 -3327 3341 0
3291 3326 -3343 0
-3291 -3326 -3343 0
-3291 3326 3343 0
3291 -3326 3343 0
3343 3341 -3339 0
-3343 -3341 -3339 0
-3343 3341 3339 0
3343 -3341 3339 0
-3291 -3326 3342 0
-3326 -3341 3342 0
-3291 -3341 3342 0
3291 3326 -3342 0
3326 3341 -3342 0
3291 3341 -3342 0
3290 3325 -3345 0
-3290 -3325 -3345 0
-3290 3325 3345 0
3290 -3325 3345 0
3345 3342 -3338 0
-3345 -3342 -3338 0
-3345 3342 3338 0
3345 -3342 3338 0
-3290 -3325 3344 0
-3325 -3342 3344 0
-3290 -3342 3344 0
3290 3325 -3344 0
3325 3342 -3344 0
3290 3342 -3344 0
3289 3324 -3347 0
-3289 -3324 -3347 0
-3289 3324 3347 0
3289 -3324 3347 0
3347 3344 -3337 0
-3347 -3344 -3337 0
-3347 3344 3337 0
3347 -3344 3337 0
-3289 -3324 3346 0
-3324 -3344 3346 0
-3289 -3344 3346 0
3289 3324 -3346 0
3324 3344 -3346 0
3289 3344 -3346 0
3288 3323 -3349 0
-3288 -3323 -3349 0
-3288 3323 3349 0
3288 -3323 3349 0
3349 3346 -3336 0
-3349 -3346 -3336 0
-3349 3346 3336 0
3349 -3346 3336 0
-3288 -3323 3348 0
-3323 -3346 3348 0
-3288 -3346 3348 0
3288 3323 -3348 0
3323 3346 -3348 0
3288 3346 -3348 0
3287 3322 -3351 0
-3287 -3322 -3351 0
-3287 3322 3351 0
3287 -3322 3351 0
3351 3348 -3335 0
-3351 -3348 -3335 0
-3351 3348 3335 0
3351 -3348 3335 0
-3287 -3322 3350 0
-3322 -3348 3350 0
-3287 -3348 3350 0
3287 3322 -3350 0
3322 3348 -3350 0
3287 3348 -3350 0
3286 3321 -3353 0
-3286 -3321 -3353 0
-3286 3321 3353 0
3286 -3321 3353 0
3353 3350 -3334 0
-3353 -3350 -3334 0
-3353 3350 3334 0
3353 -3350 3334 0
-3286 -3321 3352 0
-3321 -3350 3352 0
-3286 -3350 3352 0
3286 3321 -3352 0
3321 3350 -3352 0
3286 3350 -3352 0
3285 3320 -3355 0
-3285 -3320 -3355 0
-3285 3320 3355 0
3285 -3320 3355 0
3355 3352 -3333 0
-3355 -3352 -3333 0
-3355 3352 3333 0
3355 -3352 3333 0
-3285 -3320 3354 0
-3320 -3352 3354 0
-3285 -3352 3354 0
3285 3320 -3354 0
3320 3352 -3354 0
3285 3352 -3354 0
3284 3319 -3357 0
-3284 -3319 -3357 0
-3284 3319 3357 0
3284 -3319 3357 0
3357 3354 -3332 0
-3357 -3354 -3332 0
-3357 3354 3332 0
3357 -3354 3332 0
-3284 -3319 3356 0
-3319 -3354 3356 0
-3284 -3354 3356 0
3284 3319 -3356 0
3319 3354 -3356 0
3284 3354 -3356 0
3283 3318 -3359 0
-3283 -3318 -3359 0
-3283 3318 3359 0
3283 -3318 3359 0
3359 3356 -3331 0
-3359 -3356 -3331 0
-3359 3356 3331 0
3359 -3356 3331 0
-3283 -3318 3358 0
-3318 -3356 3358 0
-3283 -3356 3358 0
3283 3318 -3358 0
3318 3356 -3358 0
3283 3356 -3358 0
3282 3317 -3361 0
-3282 -3317 -3361 0
-3282 3317 3361 0
3282 -3317 3361 0
3361 3358 -3330 0
-3361 -3358 -3330 0
-3361 3358 3330 0
3361 -3358 3330 0
-3282 -3317 3360 0
-3317 -3358 3360 0
-3282 -3358 3360 0
3282 3317 -3360 0
3317 3358 -3360 0
3282 3358 -3360 0
3281 3316 -3362 0
-3281 -3316 -3362 0
-3281 3316 3362 0
3281 -3316 3362 0
3362 3360 -3329 0
-3362 -3360 -3329 0
-3362 3360 3329 0
3362 -3360 3329 0
-3281 -3316 3328 0
-3316 -3360 3328 0
-3281 -3360 3328 0
3281 3316 -3328 0
3316 3360 -3328 0
3281 3360 -3328 0
2918 -3363 0
2917 -3363 0
-2918 -2917 3363 0
2918 -3364 0
2918 -3364 0
-2918 -2918 3364 0
2918 -3365 0
2919 -3365 0
-2918 -2919 3365 0
2918 -3366 0
2920 -3366 0
-2918 -2920 3366 0
2918 -3367 0
2921 -3367 0
-2918 -2921 3367 0
2918 -3368 0
2922 -3368 0
-2918 -2922 3368 0
2918 -3369 0
2923 -3369 0
-2918 -2923 3369 0
2918 -3370 0
2924 -3370 0
-2918 -2924 3370 0
2918 -3371 0
2925 -3371 0
-2918 -2925 3371 0
2918 -3372 0
2926 -3372 0
-2918 -2926 3372 0
2918 -3373 0
2927 -3373 0
-2918 -2927 3373 0
2918 -3374 0
2928 -3374 0
-2918 -2928 3374 0
3339 3374 -3387 0
-3339 -3374 -3387 0
-3339 3374 3387 0
3339 -3374 3387 0
3339 -3388 0
3374 -3388 0
-3339 -3374 3388 0
3338 3373 -3390 0
-3338 -3373 -3390 0
-3338 3373 3390 0
3338 -3373 3390 0
3390 3388 -3386 0
-3390 -3388 -3386 0
-3390 3388 3386 0
3390 -3388 3386 0
-3338 -3373 3389 0
-3373 -3388 3389 0
-3338 -3388 3389 0
3338 3373 -3389 0
3373 3388 -3389 0
3338 3388 -3389 0
3337 3372 -3392 0
-3337 -3372 -3392 0
-3337 3372 3392 0
3337 -3372 3392 0
3392 3389 -3385 0
-3392 -3389 -3385 0
-3392 3389 3385 0
3392 -3389 3385 0
-3337 -3372 3391 0
-3372 -3389 3391 0
-3337 -3389 3391 0
3337 3372 -3391 0
3372 3389 -3391 0
3337 3389 -3391 0
3336 3371 -3394 0
-3336 -3371 -3394 0
-3336 3371 3394 0
3336 -3371 3394 0
3394 3391 -3384 0
-3394 -3391 -3384 0
-3394 3391 3384 0
3394 -3391 3384 0
-3336 -3371 3393 0
-3371 -3391 3393 0
-3336 -3391 3393 0
3336 3371 -3393 0
3371 3391 -3393 0
3336 3391 -3393 0
3335 3370 -3396 0
-3335 -3370 -3396 0
-3335 3370 3396 0
3335 -3370 3396 0
3396 3393 -3383 0
-3396 -3393 -3383 0
-3396 3393 3383 0
3396 -3393 3383 0
-3335 -3370 3395 0
-3370 -3393 3395 0
-3335 -3393 3395 0
3335 3370 -3395 0
3370 3393 -3395 0
3335 3393 -3395 0
3334 3369 -3398 0
-3334 -3369 -3398 0
-3334 3369 3398 0
3334 -3369 3398 0
3398 3395 -3382 0
-3398 -3395 -3382 0
-3398 3395 3382 0
3398 -3395 3382 0
-3334 -3369 3397 0
-3369 -3395 3397 0
-3334 -3395 3397 0
3334 3369 -3397 0
3369 3395 -3397 0
3334 3395 -3397 0
3333 3368 -3400 0
-3333 -3368 -3400 0
-3333 3368 3400 0
3333 -3368 3400 0
3400 3397 -3381 0
-3400 -3397 -3381 0
-3400 3397 3381 0
3400 -3397 3381 0
-3333 -3368 3399 0
-3368 -3397 3399 0
-3333 -3397 3399 0
3333 3368 -3399 0
3368 3397 -3399 0
3333 3397 -3399 0
3332 3367 -3402 0
-3332 -3367 -3402 0
-3332 3367 3402 0
3332 -3367 3402 0
3402 3399 -3380 0
-3402 -3399 -3380 0
-3402 3399 3380 0
3402 -3399 3380 0
-3332 -3367 3401 0
-3367 -3399 3401 0
-3332 -3399 3401 0
3332 3367 -3401 0
3367 3399 -3401 0
3332 3399 -3401 0
3331 3366 -3404 0
-3331 -3366 -3404 0
-3331 3366 3404 0
3331 -3366 3404 0
3404 3401 -3379 0
-3404 -3401 -3379 0
-3404 3401 3379 0
3404 -3401 3379 0
-3331 -3366 3403 0
-3366 -3401 3403 0
-3331 -3401 3403 0
3331 3366 -3403 0
3366 3401 -3403 0
3331 3401 -3403 0
3330 3365 -3406 0
-3330 -3365 -3406 0
-3330 3365 3406 0
3330 -3365 3406 0
3406 3403 -3378 0
-3406 -3403 -3378 0
-3406 3403 3378 0
3406 -3403 3378 0
-3330 -3365 3405 0
-3365 -3403 3405 0
-3330 -3403 3405 0
3330 3365 -3405 0
3365 3403 -3405 0
3330 3403 -3405 0
3329 3364 -3408 0
-3329 -3364 -3408 0
-3329 3364 3408 0
3329 -3364 3408 0
3408 3405 -3377 0
-3408 -3405 -3377 0
-3408 3405 3377 0
3408 -3405 3377 0
-3329 -3364 3407 0
-3364 -3405 3407 0
-3329 -3405 3407 0
3329 3364 -3407 0
3364 3405 -3407 0
3329 3405 -3407 0
3328 3363 -3409 0
-3328 -3363 -3409 0
-3328 3363 3409 0
3328 -3363 3409 0
3409 3407 -3376 0
-3409 -3407 -3376 0
-3409 3407 3376 0
3409 -3407 3376 0
-3328 -3363 3375 0
-3363 -3407 3375 0
-3328 -3407 3375 0
3328 3363 -3375 0
3363 3407 -3375 0
3328 3407 -3375 0
2917 -3410 0
2917 -3410 0
-2917 -2917 3410 0
2917 -3411 0
2918 -3411 0
-2917 -2918 3411 0
2917 -3412 0
2919 -3412 0
-2917 -2919 3412 0
2917 -3413 0
2920 -3413 0
-2917 -2920 3413 0
2917 -3414 0
2921 -3414 0
-2917 -2921 3414 0
2917 -3415 0
2922 -3415 0
-2917 -2922 3415 0
2917 -3416 0
2923 -3416 0
-2917 -2923 3416 0
2917 -3417 0
2924 -3417 0
-2917 -2924 3417 0
2917 -3418 0
2925 -3418 0
-2917 -2925 3418 0
2917 -3419 0
2926 -3419 0
-2917 -2926 3419 0
2917 -3420 0
2927 -3420 0
-2917 -2927 3420 0
2917 -3421 0
2928 -3421 0
-2917 -2928 3421 0
3386 3421 -3434 0
-3386 -3421 -3434 0
-3386 3421 3434 0
3386 -3421 3434 0
3386 -3435 0
3421 -3435 0
-3386 -3421 3435 0
3385 3420 -3437 0
-3385 -3420 -3437 0
-3385 3420 3437 0
3385 -3420 3437 0
3437 3435 -3433 0
-3437 -3435 -3433 0
-3437 3435 3433 0
3437 -3435 3433 0
-3385 -3420 3436 0
-3420 -3435 3436 0
-3385 -3435 3436 0
3385 3420 -3436 0
3420 3435 -3436 0
3385 3435 -3436 0
3384 3419 -3439 0
-3384 -3419 -3439 0
-3384 3419 3439 0
3384 -3419 3439 0
3439 3436 -3432 0
-3439 -3436 -3432 0
-3439 3436 3432 0
3439 -3436 3432 0
-3384 -3419 3438 0
-3419 -3436 3438 0
-3384 -3436 3438 0
3384 3419 -3438 0
3419 3436 -3438 0
3384 3436 -3438 0
3383 3418 -3441 0
-3383 -3418 -3441 0
-3383 3418 3441 0
3383 -3418 3441 0
3441 3438 -3431 0
-3441 -3438 -3431 0
-3441 3438 3431 0
3441 -3438 3431 0
-3383 -3418 3440 0
-3418 -3438 3440 0
-3383 -3438 3440 0
3383 3418 -3440 0
3418 3438 -3440 0
3383 3438 -3440 0
3382 3417 -3443 0
-3382 -3417 -3443 0
-3382 3417 3443 0
3382 -3417 3443 0
3443 3440 -3430 0
-3443 -3440 -3430 0
-3443 3440 3430 0
3443 -3440 3430 0
-3382 -3417 3442 0
-3417 -3440 3442 0
-3382 -3440 3442 0
3382 3417 -3442 0
3417 3440 -3442 0
3382 3440 -3442 0
3381 3416 -3445 0
-3381 -3416 -3445 0
-3381 3416 3445 0
3381 -3416 3445 0
3445 3442 -3429 0
-3445 -3442 -3429 0
-3445 3442 3429 0
3445 -3442 3429 0
-3381 -3416 3444 0
-3416 -3442 3444 0
-3381 -3442 3444 0
3381 3416 -3444 0
3416 3442 -3444 0
3381 3442 -3444 0
3380 3415 -3447 0
-3380 -3415 -3447 0
-3380 3415 3447 0
3380 -3415 3447 0
3447 3444 -3428 0
-3447 -3444 -3428 0
-3447 3444 3428 0
3447 -3444 3428 0
-3380 -3415 3446 0
-3415 -3444 3446 0
-3380 -3444 3446 0
3380 3415 -3446 0
3415 3444 -3446 0
3380 3444 -3446 0
3379 3414 -3449 0
-3379 -3414 -3449 0
-3379 3414 3449 0
3379 -3414 3449 0
3449 3446 -3427 0
-3449 -3446 -3427 0
-3449 3446 3427 0
3449 -3446 3427 0
-3379 -3414 3448 0
-3414 -3446 3448 0
-3379 -3446 3448 0
3379 3414 -3448 0
3414 3446 -3448 0
3379 3446 -3448 0
3378 3413 -3451 0
-3378 -3413 -3451 0
-3378 3413 3451 0
3378 -3413 3451 0
3451 3448 -3426 0
-3451 -3448 -3426 0
-3451 3448 3426 0
3451 -3448 3426 0
-3378 -3413 3450 0
-3413 -3448 3450 0
-3378 -3448 3450 0
3378 3413 -3450 0
3413 3448 -3450 0
3378 3448 -3450 0
3377 3412 -3453 0
-3377 -3412 -3453 0
-3377 3412 3453 0
3377 -3412 3453 0
3453 3450 -3425 0
-3453 -3450 -3425 0
-3453 3450 3425 0
3453 -3450 3425 0
-3377 -3412 3452 0
-3412 -3450 3452 0
-3377 -3450 3452 0
3377 3412 -3452 0
3412 3450 -3452 0
3377 3450 -3452 0
3376 3411 -3455 0
-3376 -3411 -3455 0
-3376 3411 3455 0
3376 -3411 3455 0
3455 3452 -3424 0
-3455 -3452 -3424 0
-3455 3452 3424 0
3455 -3452 3424 0
-3376 -3411 3454 0
-3411 -3452 3454 0
-3376 -3452 3454 0
3376 3411 -3454 0
3411 3452 -3454 0
3376 3452 -3454 0
3375 3410 -3456 0
-3375 -3410 -3456 0
-3375 3410 3456 0
3375 -3410 3456 0
3456 3454 -3423 0
-3456 -3454 -3423 0
-3456 3454 3423 0
3456 -3454 3423 0
-3375 -3410 3422 0
-3410 -3454 3422 0
-3375 -3454 3422 0
3375 3410 -3422 0
3410 3454 -3422 0
3375 3454 -3422 0
3422 -121 0
-3422 121 0
3423 -122 0
-3423 122 0
3424 -123 0
-3424 123 0
3425 -124 0
-3425 124 0
3426 -125 0
-3426 125 0
3427 -126 0
-3427 126 0
3428 -127 0
-3428 127 0
3429 -128 0
-3429 128 0
3430 -129 0
-3430 129 0
3431 -130 0
-3431 130 0
3432 -131 0
-3432 131 0
3433 -132 0
-3433 132 0
3434 -133 0
-3434 133 0
3387 -134 0
-3387 134 0
3340 -135 0
-3340 135 0
3293 -136 0
-3293 136 0
3246 -137 0
-3246 137 0
3199 -138 0
-3199 138 0
3152 -139 0
-3152 139 0
3105 -140 0
-3105 140 0
3058 -141 0
-3058 141 0
3011 -142 0
-3011 142 0
2965 -143 0
-2965 143 0
2940 -144 0
-2940 144 0
145 146 147 148 149 150 151 152 153 154 155 156 157 158 159 160 161 162 163 164 165 166 167 168 0
3468 -3469 0
3457 -3469 0
-3468 -3457 3469 0
3468 -3470 0
3458 -3470 0
-3468 -3458 3470 0
3468 -3471 0
3459 -3471 0
-3468 -3459 3471 0
3468 -3472 0
3460 -3472 0
-3468 -3460 3472 0
3468 -3473 0
3461 -3473 0
-3468 -3461 3473 0
3468 -3474 0
3462 -3474 0
-3468 -3462 3474 0
3468 -3475 0
3463 -3475 0
-3468 -3463 3475 0
3468 -3476 0
3464 -3476 0
-3468 -3464 3476 0
3468 -3477 0
3465 -3477 0
-3468 -3465 3477 0
3468 -3478 0
3466 -3478 0
-3468 -3466 3478 0
3468 -3479 0
3467 -3479 0
-3468 -3467 3479 0
3468 -3480 0
3468 -3480 0
-3468 -3468 3480 0
3467 -3481 0
3457 -3481 0
-3467 -3457 3481 0
3467 -3482 0
3458 -3482 0
-3467 -3458 3482 0
3467 -3483 0
3459 -3483 0
-3467 -3459 3483 0
3467 -3484 0
3460 -3484 0
-3467 -3460 3484 0
3467 -3485 0
3461 -3485 0
-3467 -3461 3485 0
3467 -3486 0
3462 -3486 0
-3467 -3462 3486 0
3467 -3487 0
3463 -3487 0
-3467 -3463 3487 0
3467 -3488 0
3464 -3488 0
-3467 -3464 3488 0
3467 -3489 0
3465 -3489 0
-3467 -3465 3489 0
3467 -3490 0
3466 -3490 0
-3467 -3466 3490 0
3467 -3491 0
3467 -3491 0
-3467 -3467 3491 0
3467 -3492 0
3468 -3492 0
-3467 -3468 3492 0
3479 3492 -3505 0
-3479 -3492 -3505 0
-3479 3492 3505 0
3479 -3492 3505 0
3479 -3506 0
3492 -3506 0
-3479 -3492 3506 0
3478 3491 -3508 0
-3478 -3491 -3508 0
-3478 3491 3508 0
3478 -3491 3508 0
3508 3506 -3504 0
-3508 -3506 -3504 0
-3508 3506 3504 0
3508 -3506 3504 0
-3478 -3491 3507 0
-3491 -3506 3507 0
-3478 -3506 3507 0
3478 3491 -3507 0
3491 3506 -3507 0
3478 3506 -3507 0
3477 3490 -3510 0
-3477 -3490 -3510 0
-3477 3490 3510 0
3477 -3490 3510 0
3510 3507 -3503 0
-3510 -3507 -3503 0
-3510 3507 3503 0
3510 -3507 3503 0
-3477 -3490 3509 0
-3490 -3507 3509 0
-3477 -3507 3509 0
3477 3490 -3509 0
3490 3507 -3509 0
3477 3507 -3509 0
3476 3489 -3512 0
-3476 -3489 -3512 0
-3476 3489 3512 0
3476 -3489 3512 0
3512 3509 -3502 0
-3512 -3509 -3502 0
-3512 3509 3502 0
3512 -3509 3502 0
-3476 -3489 3511 0
-3489 -3509 3511 0
-3476 -3509 3511 0
3476 3489 -3511 0
3489 3509 -3511 0
3476 3509 -3511 0
3475 3488 -3514 0
-3475 -3488 -3514 0
-3475 3488 3514 0
3475 -3488 3514 0
3514 3511 -3501 0
-3514 -3511 -3501 0
-3514 3511 3501 0
3514 -3511 3501 0
-3475 -3488 3513 0
-3488 -3511 3513 0
-3475 -3511 3513 0
3475 3488 -3513 0
3488 3511 -3513 0
3475 3511 -3513 0
3474 3487 -3516 0
-3474 -3487 -3516 0
-3474 3487 3516 0
3474 -3487 3516 0
3516 3513 -3500 0
-3516 -3513 -3500 0
-3516 3513 3500 0
3516 -3513 3500 0
-3474 -3487 3515 0
-3487 -3513 3515 0
-3474 -3513 3515 0
3474 3487 -3515 0
3487 3513 -3515 0
3474 3513 -3515 0
3473 3486 -3518 0
-3473 -3486 -3518 0
-3473 3486 3518 0
3473 -3486 3518 0
3518 3515 -3499 0
-3518 -3515 -3499 0
-3518 3515 3499 0
3518 -3515 3499 0
-3473 -3486 3517 0
-3486 -3515 3517 0
-3473 -3515 3517 0
3473 3486 -3517 0
3486 3515 -3517 0
3473 3515 -3517 0
3472 3485 -3520 0
-3472 -3485 -3520 0
-3472 3485 3520 0
3472 -3485 3520 0
3520 3517 -3498 0
-3520 -3517 -3498 0
-3520 3517 3498 0
3520 -3517 3498 0
-3472 -3485 3519 0
-3485 -3517 3519 0
-3472 -3517 3519 0
3472 3485 -3519 0
3485 3517 -3519 0
3472 3517 -3519 0
3471 3484 -3522 0
-3471 -3484 -3522 0
-3471 3484 3522 0
3471 -3484 3522 0
3522 3519 -3497 0
-3522 -3519 -3497 0
-3522 3519 3497 0
3522 -3519 3497 0
-3471 -3484 3521 0
-3484 -3519 3521 0
-3471 -3519 3521 0
3471 3484 -3521 0
3484 3519 -3521 0
3471 3519 -3521 0
3470 3483 -3524 0
-3470 -3483 -3524 0
-3470 3483 3524 0
3470 -3483 3524 0
3524 3521 -3496 0
-3524 -3521 -3496 0
-3524 3521 3496 0
3524 -3521 3496 0
-3470 -3483 3523 0
-3483 -3521 3523 0
-3470 -3521 3523 0
3470 3483 -3523 0
3483 3521 -3523 0
3470 3521 -3523 0
3469 3482 -3526 0
-3469 -3482 -3526 0
-3469 3482 3526 0
3469 -3482 3526 0
3526 3523 -3495 0
-3526 -3523 -3495 0
-3526 3523 3495 0
3526 -3523 3495 0
-3469 -3482 3525 0
-3482 -3523 3525 0
-3469 -3523 3525 0
3469 3482 -3525 0
3482 3523 -3525 0
3469 3523 -3525 0
3481 3525 -3494 0
-3481 -3525 -3494 0
-3481 3525 3494 0
3481 -3525 3494 0
3481 -3493 0
3525 -3493 0
-3481 -3525 3493 0
3466 -3527 0
3457 -3527 0
-3466 -3457 3527 0
3466 -3528 0
3458 -3528 0
-3466 -3458 3528 0
3466 -3529 0
3459 -3529 0
-3466 -3459 3529 0
3466 -3530 0
3460 -3530 0
-3466 -3460 3530 0
3466 -3531 0
3461 -3531 0
-3466 -3461 3531 0
3466 -3532 0
3462 -3532 0
-3466 -3462 3532 0
3466 -3533 0
3463 -3533 0
-3466 -3463 3533 0
3466 -3534 0
3464 -3534 0
-3466 -3464 3534 0
3466 -3535 0
3465 -3535 0
-3466 -3465 3535 0
3466 -3536 0
3466 -3536 0
-3466 -3466 3536 0
3466 -3537 0
3467 -3537 0
-3466 -3467 3537 0
3466 -3538 0
3468 -3538 0
-3466 -3468 3538 0
3504 3538 -3551 0
-3504 -3538 -3551 0
-3504 3538 3551 0
3504 -3538 3551 0
3504 -3552 0
3538 -3552 0
-3504 -3538 3552 0
3503 3537 -3554 0
-3503 -3537 -3554 0
-3503 3537 3554 0
3503 -3537 3554 0
3554 3552 -3550 0
-3554 -3552 -3550 0
-3554 3552 3550 0
3554 -3552 3550 0
-3503 -3537 3553 0
-3537 -3552 3553 0
-3503 -3552 3553 0
3503 3537 -3553 0
3537 3552 -3553 0
3503 3552 -3553 0
3502 3536 -3556 0
-3502 -3536 -3556 0
-3502 3536 3556 0
3502 -3536 3556 0
3556 3553 -3549 0
-3556 -3553 -3549 0
-3556 3553 3549 0
3556 -3553 3549 0
-3502 -3536 3555 0
-3536 -3553 3555 0
-3502 -3553 3555 0
3502 3536 -3555 0
3536 3553 -3555 0
3502 3553 -3555 0
3501 3535 -3558 0
-3501 -3535 -3558 0
-3501 3535 3558 0
3501 -3535 3558 0
3558 3555 -3548 0
-3558 -3555 -3548 0
-3558 3555 3548 0
3558 -3555 3548 0
-3501 -3535 3557 0
-3535 -3555 3557 0
-3501 -3555 3557 0
3501 3535 -3557 0
3535 3555 -3557 0
3501 3555 -3557 0
3500 3534 -3560 0
-3500 -3534 -3560 0
-3500 3534 3560 0
3500 -3534 3560 0
3560 3557 -3547 0
-3560 -3557 -3547 0
-3560 3557 3547 0
3560 -3557 3547 0
-3500 -3534 3559 0
-3534 -3557 3559 0
-3500 -3557 3559 0
3500 3534 -3559 0
3534 3557 -3559 0
3500 3557 -3559 0
3499 3533 -3562 0
-3499 -3533 -3562 0
-3499 3533 3562 0
3499 -3533 3562 0
3562 3559 -3546 0
-3562 -3559 -3546 0
-3562 3559 3546 0
3562 -3559 3546 0
-3499 -3533 3561 0
-3533 -3559 3561 0
-3499 -3559 3561 0
3499 3533 -3561 0
3533 3559 -3561 0
3499 3559 -3561 0
3498 3532 -3564 0
-3498 -3532 -3564 0
-3498 3532 3564 0
3498 -3532 3564 0
3564 3561 -3545 0
-3564 -3561 -3545 0
-3564 3561 3545 0
3564 -3561 3545 0
-3498 -3532 3563 0
-3532 -3561 3563 0
-3498 -3561 3563 0
3498 3532 -3563 0
3532 3561 -3563 0
3498 3561 -3563 0
3497 3531 -3566 0
-3497 -3531 -3566 0
-3497 3531 3566 0
3497 -3531 3566 0
3566 3563 -3544 0
-3566 -3563 -3544 0
-3566 3563 3544 0
3566 -3563 3544 0
-3497 -3531 3565 0
-3531 -3563 3565 0
-3497 -3563 3565 0
3497 3531 -3565 0
3531 3563 -3565 0
3497 3563 -3565 0
3496 3530 -3568 0
-3496 -3530 -3568 0
-3496 3530 3568 0
3496 -3530 3568 0
3568 3565 -3543 0
-3568 -3565 -3543 0
-3568 3565 3543 0
3568 -3565 3543 0
-3496 -3530 3567 0
-3530 -3565 3567 0
-3496 -3565 3567 0
3496 3530 -3567 0
3530 3565 -3567 0
3496 3565 -3567 0
3495 3529 -3570 0
-3495 -3529 -3570 0
-3495 3529 3570 0
3495 -3529 3570 0
3570 3567 -3542 0
-3570 -3567 -3542 0
-3570 3567 3542 0
3570 -3567 3542 0
-3495 -3529 3569 0
-3529 -3567 3569 0
-3495 -3567 3569 0
3495 3529 -3569 0
3529 3567 -3569 0
3495 3567 -3569 0
3494 3528 -3572 0
-3494 -3528 -3572 0
-3494 3528 3572 0
3494 -3528 3572 0
3572 3569 -3541 0
-3572 -3569 -3541 0
-3572 3569 3541 0
3572 -3569 3541 0
-3494 -3528 3571 0
-3528 -3569 3571 0
-3494 -3569 3571 0
3494 3528 -3571 0
3528 3569 -3571 0
3494 3569 -3571 0
3493 3527 -3573 0
-3493 -3527 -3573 0
-3493 3527 3573 0
3493 -3527 3573 0
3573 3571 -3540 0
-3573 -3571 -3540 0
-3573 3571 3540 0
3573 -3571 3540 0
-3493 -3527 3539 0
-3527 -3571 3539 0
-3493 -3571 3539 0
3493 3527 -3539 0
3527 3571 -3539 0
3493 3571 -3539 0
3465 -3574 0
3457 -3574 0
-3465 -3457 3574 0
3465 -3575 0
3458 -3575 0
-3465 -3458 3575 0
3465 -3576 0
3459 -3576 0
-3465 -3459 3576 0
3465 -3577 0
3460 -3577 0
-3465 -3460 3577 0
3465 -3578 0
3461 -3578 0
-3465 -3461 3578 0
3465 -3579 0
3462 -3579 0
-3465 -3462 3579 0
3465 -3580 0
3463 -3580 0
-3465 -3463 3580 0
3465 -3581 0
3464 -3581 0
-3465 -3464 3581 0
3465 -3582 0
3465 -3582 0
-3465 -3465 3582 0
3465 -3583 0
3466 -3583 0
-3465 -3466 3583 0
3465 -3584 0
3467 -3584 0
-3465 -3467 3584 0
3465 -3585 0
3468 -3585 0
-3465 -3468 3585 0
3550 3585 -3598 0
-3550 -3585 -3598 0
-3550 3585 3598 0
3550 -3585 3598 0
3550 -3599 0
3585 -3599 0
-3550 -3585 3599 0
3549 3584 -3601 0
-3549 -3584 -3601 0
-3549 3584 3601 0
3549 -3584 3601 0
3601 3599 -3597 0
-3601 -3599 -3597 0
-3601 3599 3597 0
3601 -3599 3597 0
-3549 -3584 3600 0
-3584 -3599 3600 0
-3549 -3599 3600 0
3549 3584 -3600 0
3584 3599 -3600 0
3549 3599 -3600 0
3548 3583 -3603 0
-3548 -3583 -3603 0
-3548 3583 3603 0
3548 -3583 3603 0
3603 3600 -3596 0
-3603 -3600 -3596 0
-3603 3600 3596 0
3603 -3600 3596 0
-3548 -3583 3602 0
-3583 -3600 3602 0
-3548 -3600 3602 0
3548 3583 -3602 0
3583 3600 -3602 0
3548 3600 -3602 0
3547 3582 -3605 0
-3547 -3582 -3605 0
-3547 3582 3605 0
3547 -3582 3605 0
3605 3602 -3595 0
-3605 -3602 -3595 0
-3605 3602 3595 0
3605 -3602 3595 0
-3547 -3582 3604 0
-3582 -3602 3604 0
-3547 -3602 3604 0
3547 3582 -3604 0
3582 3602 -3604 0
3547 3602 -3604 0
3546 3581 -3607 0
-3546 -3581 -3607 0
-3546 3581 3607 0
3546 -3581 3607 0
3607 3604 -3594 0
-3607 -3604 -3594 0
-3607 3604 3594 0
3607 -3604 3594 0
-3546 -3581 3606 0
-3581 -3604 3606 0
-3546 -3604 3606 0
3546 3581 -3606 0
3581 3604 -3606 0
3546 3604 -3606 0
3545 3580 -3609 0
-3545 -3580 -3609 0
-3545 3580 3609 0
3545 -3580 3609 0
3609 3606 -3593 0
-3609 -3606 -3593 0
-3609 3606 3593 0
3609 -3606 3593 0
-3545 -3580 3608 0
-3580 -3606 3608 0
-3545 -3606 3608 0
3545 3580 -3608 0
3580 3606 -3608 0
3545 3606 -3608 0
3544 3579 -3611 0
-3544 -3579 -3611 0
-3544 3579 3611 0
3544 -3579 3611 0
3611 3608 -3592 0
-3611 -3608 -3592 0
-3611 3608 3592 0
3611 -3608 3592 0
-3544 -3579 3610 0
-3579 -3608 3610 0
-3544 -3608 3610 0
3544 3579 -3610 0
3579 3608 -3610 0
3544 3608 -3610 0
3543 3578 -3613 0
-3543 -3578 -3613 0
-3543 3578 3613 0
3543 -3578 3613 0
3613 3610 -3591 0
-3613 -3610 -3591 0
-3613 3610 3591 0
3613 -3610 3591 0
-3543 -3578 3612 0
-3578 -3610 3612 0
-3543 -3610 3612 0
3543 3578 -3612 0
3578 3610 -3612 0
3543 3610 -3612 0
3542 3577 -3615 0
-3542 -3577 -3615 0
-3542 3577 3615 0
3542 -3577 3615 0
3615 3612 -3590 0
-3615 -3612 -3590 0
-3615 3612 3590 0
3615 -3612 3590 0
-3542 -3577 3614 0
-3577 -3612 3614 0
-3542 -3612 3614 0
3542 3577 -3614 0
3577 3612 -3614 0
3542 3612 -3614 0
3541 3576 -3617 0
-3541 -3576 -3617 0
-3541 3576 3617 0
3541 -3576 3617 0
3617 3614 -3589 0
-3617 -3614 -3589 0
-3617 3614 3589 0
3617 -3614 3589 0
-3541 -3576 3616 0
-3576 -3614 3616 0
-3541 -3614 3616 0
3541 3576 -3616 0
3576 3614 -3616 0
3541 3614 -3616 0
3540 3575 -3619 0
-3540 -3575 -3619 0
-3540 3575 3619 0
3540 -3575 3619 0
3619 3616 -3588 0
-3619 -3616 -3588 0
-3619 3616 3588 0
3619 -3616 3588 0
-3540 -3575 3618 0
-3575 -3616 3618 0
-3540 -3616 3618 0
3540 3575 -3618 0
3575 3616 -3618 0
3540 3616 -3618 0
3539 3574 -3620 0
-3539 -3574 -3620 0
-3539 3574 3620 0
3539 -3574 3620 0
3620 3618 -3587 0
-3620 -3618 -3587 0
-3620 3618 3587 0
3620 -3618 3587 0
-3539 -3574 3586 0
-3574 -3618 3586 0
-3539 -3618 3586 0
3539 3574 -3586 0
3574 3618 -3586 0
3539 3618 -3586 0
3464 -3621 0
3457 -3621 0
-3464 -3457 3621 0
3464 -3622 0
3458 -3622 0
-3464 -3458 3622 0
3464 -3623 0
3459 -3623 0
-3464 -3459 3623 0
3464 -3624 0
3460 -3624 0
-3464 -3460 3624 0
3464 -3625 0
3461 -3625 0
-3464 -3461 3625 0
3464 -3626 0
3462 -3626 0
-3464 -3462 3626 0
3464 -3627 0
3463 -3627 0
-3464 -3463 3627 0
3464 -3628 0
3464 -3628 0
-3464 -3464 3628 0
3464 -3629 0
3465 -3629 0
-3464 -3465 3629 0
3464 -3630 0
3466 -3630 0
-3464 -3466 3630 0
3464 -3631 0
3467 -3631 0
-3464 -3467 3631 0
3464 -3632 0
3468 -3632 0
-3464 -3468 3632 0
3597 3632 -3645 0
-3597 -3632 -3645 0
-3597 3632 3645 0
3597 -3632 3645 0
3597 -3646 0
3632 -3646 0
-3597 -3632 3646 0
3596 3631 -3648 0
-3596 -3631 -3648 0
-3596 3631 3648 0
3596 -3631 3648 0
3648 3646 -3644 0
-3648 -3646 -3644 0
-3648 3646 3644 0
3648 -3646 3644 0
-3596 -3631 3647 0
-3631 -3646 3647 0
-3596 -3646 3647 0
3596 3631 -3647 0
3631 3646 -3647 0
3596 3646 -3647 0
3595 3630 -3650 0
-3595 -3630 -3650 0
-3595 3630 3650 0
3595 -3630 3650 0
3650 3647 -3643 0
-3650 -3647 -3643 0
-3650 3647 3643 0
3650 -3647 3643 0
-3595 -3630 3649 0
-3630 -3647 3649 0
-3595 -3647 3649 0
3595 3630 -3649 0
3630 3647 -3649 0
3595 3647 -3649 0
3594 3629 -3652 0
-3594 -3629 -3652 0
-3594 3629 3652 0
3594 -3629 3652 0
3652 3649 -3642 0
-3652 -3649 -3642 0
-3652 3649 3642 0
3652 -3649 3642 0
-3594 -3629 3651 0
-3629 -3649 3651 0
-3594 -3649 3651 0
3594 3629 -3651 0
3629 3649 -3651 0
3594 3649 -3651 0
3593 3628 -3654 0
-3593 -3628 -3654 0
-3593 3628 3654 0
3593 -3628 3654 0
3654 3651 -3641 0
-3654 -3651 -3641 0
-3654 3651 3641 0
3654 -3651 3641 0
-3593 -3628 3653 0
-3628 -3651 3653 0
-3593 -3651 3653 0
3593 3628 -3653 0
3628 3651 -3653 0
3593 3651 -3653 0
3592 3627 -3656 0
-3592 -3627 -3656 0
-3592 3627 3656 0
3592 -3627 3656 0
3656 3653 -3640 0
-3656 -3653 -3640 0
-3656 3653 3640 0
3656 -3653 3640 0
-3592 -3627 3655 0
-3627 -3653 3655 0
-3592 -3653 3655 0
3592 3627 -3655 0
3627 3653 -3655 0
3592 3653 -3655 0
3591 3626 -3658 0
-3591 -3626 -3658 0
-3591 3626 3658 0
3591 -3626 3658 0
3658 3655 -3639 0
-3658 -3655 -3639 0
-3658 3655 3639 0
3658 -3655 3639 0
-3591 -3626 3657 0
-3626 -3655 3657 0
-3591 -3655 3657 0
3591 3626 -3657 0
3626 3655 -3657 0
3591 3655 -3657 0
3590 3625 -3660 0
-3590 -3625 -3660 0
-3590 3625 3660 0
3590 -3625 3660 0
3660 3657 -3638 0
-3660 -3657 -3638 0
-3660 3657 3638 0
3660 -3657 3638 0
-3590 -3625 3659 0
-3625 -3657 3659 0
-3590 -3657 3659 0
3590 3625 -3659 0
3625 3657 -3659 0
3590 3657 -3659 0
3589 3624 -3662 0
-3589 -3624 -3662 0
-3589 3624 3662 0
3589 -3624 3662 0
3662 3659 -3637 0
-3662 -3659 -3637 0
-3662 3659 3637 0
3662 -3659 3637 0
-3589 -3624 3661 0
-3624 -3659 3661 0
-3589 -3659 3661 0
3589 3624 -3661 0
3624 3659 -3661 0
3589 3659 -3661 0
3588 3623 -3664 0
-3588 -3623 -3664 0
-3588 3623 3664 0
3588 -3623 3664 0
3664 3661 -3636 0
-3664 -3661 -3636 0
-3664 3661 3636 0
3664 -3661 3636 0
-3588 -3623 3663 0
-3623 -3661 3663 0
-3588 -3661 3663 0
3588 3623 -3663 0
3623 3661 -3663 0
3588 3661 -3663 0
3587 3622 -3666 0
-3587 -3622 -3666 0
-3587 3622 3666 0
3587 -3622 3666 0
3666 3663 -3635 0
-3666 -3663 -3635 0
-3666 3663 3635 0
3666 -3663 3635 0
-3587 -3622 3665 0
-3622 -3663 3665 0
-3587 -3663 3665 0
3587 3622 -3665 0
3622 3663 -3665 0
3587 3663 -3665 0
3586 3621 -3667 0
-3586 -3621 -3667 0
-3586 3621 3667 0
3586 -3621 3667 0
3667 3665 -3634 0
-3667 -3665 -3634 0
-3667 3665 3634 0
3667 -3665 3634 0
-3586 -3621 3633 0
-3621 -3665 3633 0
-3586 -3665 3633 0
3586 3621 -3633 0
3621 3665 -3633 0
3586 3665 -3633 0
3463 -3668 0
3457 -3668 0
-3463 -3457 3668 0
3463 -3669 0
3458 -3669 0
-3463 -3458 3669 0
3463 -3670 0
3459 -3670 0
-3463 -3459 3670 0
3463 -3671 0
3460 -3671 0
-3463 -3460 3671 0
3463 -3672 0
3461 -3672 0
-3463 -3461 3672 0
3463 -3673 0
3462 -3673 0
-3463 -3462 3673 0
3463 -3674 0
3463 -3674 0
-3463 -3463 3674 0
3463 -3675 0
3464 -3675 0
-3463 -3464 3675 0
3463 -3676 0
3465 -3676 0
-3463 -3465 3676 0
3463 -3677 0
3466 -3677 0
-3463 -3466 3677 0
3463 -3678 0
3467 -3678 0
-3463 -3467 3678 0
3463 -3679 0
3468 -3679 0
-3463 -3468 3679 0
3644 3679 -3692 0
-3644 -3679 -3692 0
-3644 3679 3692 0
3644 -3679 3692 0
3644 -3693 0
3679 -3693 0
-3644 -3679 3693 0
3643 3678 -3695 0
-3643 -3678 -3695 0
-3643 3678 3695 0
3643 -3678 3695 0
3695 3693 -3691 0
-3695 -3693 -3691 0
-3695 3693 3691 0
3695 -3693 3691 0
-3643 -3678 3694 0
-3678 -3693 3694 0
-3643 -3693 3694 0
3643 3678 -3694 0
3678 3693 -3694 0
3643 3693 -3694 0
3642 3677 -3697 0
-3642 -3677 -3697 0
-3642 3677 3697 0
3642 -3677 3697 0
3697 3694 -3690 0
-3697 -3694 -3690 0
-3697 3694 3690 0
3697 -3694 3690 0
-3642 -3677 3696 0
-3677 -3694 3696 0
-3642 -3694 3696 0
3642 3677 -3696 0
3677 3694 -3696 0
3642 3694 -3696 0
3641 3676 -3699 0
-3641 -3676 -3699 0
-3641 3676 3699 0
3641 -3676 3699 0
3699 3696 -3689 0
-3699 -3696 -3689 0
-3699 3696 3689 0
3699 -3696 3689 0
-3641 -3676 3698 0
-3676 -3696 3698 0
-3641 -3696 3698 0
3641 3676 -3698 0
3676 3696 -3698 0
3641 3696 -3698 0
3640 3675 -3701 0
-3640 -3675 -3701 0
-3640 3675 3701 0
3640 -3675 3701 0
3701 3698 -3688 0
-3701 -3698 -3688 0
-3701 3698 3688 0
3701 -3698 3688 0
-3640 -3675 3700 0
-3675 -3698 3700 0
-3640 -3698 3700 0
3640 3675 -3700 0
3675 3698 -3700 0
3640 3698 -3700 0
3639 3674 -3703 0
-3639 -3674 -3703 0
-3639 3674 3703 0
3639 -3674 3703 0
3703 3700 -3687 0
-3703 -3700 -3687 0
-3703 3700 3687 0
3703 -3700 3687 0
-3639 -3674 3702 0
-3674 -3700 3702 0
-3639 -3700 3702 0
3639 3674 -3702 0
3674 3700 -3702 0
3639 3700 -3702 0
3638 3673 -3705 0
-3638 -3673 -3705 0
-3638 3673 3705 0
3638 -3673 3705 0
3705 3702 -3686 0
-3705 -3702 -3686 0
-3705 3702 3686 0
3705 -3702 3686 0
-3638 -3673 3704 0
-3673 -3702 3704 0
-3638 -3702 3704 0
3638 3673 -3704 0
3673 3702 -3704 0
3638 3702 -3704 0
3637 3672 -3707 0
-3637 -3672 -3707 0
-3637 3672 3707 0
3637 -3672 3707 0
3707 3704 -3685 0
-3707 -3704 -3685 0
-3707 3704 3685 0
3707 -3704 3685 0
-3637 -3672 3706 0
-3672 -3704 3706 0
-3637 -3704 3706 0
3637 3672 -3706 0
3672 3704 -3706 0
3637 3704 -3706 0
3636 3671 -3709 0
-3636 -3671 -3709 0
-3636 3671 3709 0
3636 -3671 3709 0
3709 3706 -3684 0
-3709 -3706 -3684 0
-3709 3706 3684 0
3709 -3706 3684 0
-3636 -3671 3708 0
-3671 -3706 3708 0
-3636 -3706 3708 0
3636 3671 -3708 0
3671 3706 -3708 0
3636 3706 -3708 0
3635 3670 -3711 0
-3635 -3670 -3711 0
-3635 3670 3711 0
3635 -3670 3711 0
3711 3708 -3683 0
-3711 -3708 -3683 0
-3711 3708 3683 0
3711 -3708 3683 0
-3635 -3670 3710 0
-3670 -3708 3710 0
-3635 -3708 3710 0
3635 3670 -3710 0
3670 3708 -3710 0
3635 3708 -3710 0
3634 3669 -3713 0
-3634 -3669 -3713 0
-3634 3669 3713 0
3634 -3669 3713 0
3713 3710 -3682 0
-3713 -3710 -3682 0
-3713 3710 3682 0
3713 -3710 3682 0
-3634 -3669 3712 0
-3669 -3710 3712 0
-3634 -3710 3712 0
3634 3669 -3712 0
3669 3710 -3712 0
3634 3710 -3712 0
3633 3668 -3714 0
-3633 -3668 -3714 0
-3633 3668 3714 0
3633 -3668 3714 0
3714 3712 -3681 0
-3714 -3712 -3681 0
-3714 3712 3681 0
3714 -3712 3681 0
-3633 -3668 3680 0
-3668 -3712 3680 0
-3633 -3712 3680 0
3633 3668 -3680 0
3668 3712 -3680 0
3633 3712 -3680 0
3462 -3715 0
3457 -3715 0
-3462 -3457 3715 0
3462 -3716 0
3458 -3716 0
-3462 -3458 3716 0
3462 -3717 0
3459 -3717 0
-3462 -3459 3717 0
3462 -3718 0
3460 -3718 0
-3462 -3460 3718 0
3462 -3719 0
3461 -3719 0
-3462 -3461 3719 0
3462 -3720 0
3462 -3720 0
-3462 -3462 3720 0
3462 -3721 0
3463 -3721 0
-3462 -3463 3721 0
3462 -3722 0
3464 -3722 0
-3462 -3464 3722 0
3462 -3723 0
3465 -3723 0
-3462 -3465 3723 0
3462 -3724 0
3466 -3724 0
-3462 -3466 3724 0
3462 -3725 0
3467 -3725 0
-3462 -3467 3725 0
3462 -3726 0
3468 -3726 0
-3462 -3468 3726 0
3691 3726 -3739 0
-3691 -3726 -3739 0
-3691 3726 3739 0
3691 -3726 3739 0
3691 -3740 0
3726 -3740 0
-3691 -3726 3740 0
3690 3725 -3742 0
-3690 -3725 -3742 0
-3690 3725 3742 0
3690 -3725 3742 0
3742 3740 -3738 0
-3742 -3740 -3738 0
-3742 3740 3738 0
3742 -3740 3738 0
-3690 -3725 3741 0
-3725 -3740 3741 0
-3690 -3740 3741 0
3690 3725 -3741 0
3725 3740 -3741 0
3690 3740 -3741 0
3689 3724 -3744 0
-3689 -3724 -3744 0
-3689 3724 3744 0
3689 -3724 3744 0
3744 3741 -3737 0
-3744 -3741 -3737 0
-3744 3741 3737 0
3744 -3741 3737 0
-3689 -3724 3743 0
-3724 -3741 3743 0
-3689 -3741 3743 0
3689 3724 -3743 0
3724 3741 -3743 0
3689 3741 -3743 0
3688 3723 -3746 0
-3688 -3723 -3746 0
-3688 3723 3746 0
3688 -3723 3746 0
3746 3743 -3736 0
-3746 -3743 -3736 0
-3746 3743 3736 0
3746 -3743 3736 0
-3688 -3723 3745 0
-3723 -3743 3745 0
-3688 -3743 3745 0
3688 3723 -3745 0
3723 3743 -3745 0
3688 3743 -3745 0
3687 3722 -3748 0
-3687 -3722 -3748 0
-3687 3722 3748 0
3687 -3722 3748 0
3748 3745 -3735 0
-3748 -3745 -3735 0
-3748 3745 3735 0
3748 -3745 3735 0
-3687 -3722 3747 0
-3722 -3745 3747 0
-3687 -3745 3747 0
3687 3722 -3747 0
3722 3745 -3747 0
3687 3745 -3747 0
3686 3721 -3750 0
-3686 -3721 -3750 0
-3686 3721 3750 0
3686 -3721 3750 0
3750 3747 -3734 0
-3750 -3747 -3734 0
-3750 3747 3734 0
3750 -3747 3734 0
-3686 -3721 3749 0
-3721 -3747 3749 0
-3686 -3747 3749 0
3686 3721 -3749 0
3721 3747 -3749 0
3686 3747 -3749 0
3685 3720 -3752 0
-3685 -3720 -3752 0
-3685 3720 3752 0
3685 -3720 3752 0
3752 3749 -3733 0
-3752 -3749 -3733 0
-3752 3749 3733 0
3752 -3749 3733 0
-3685 -3720 3751 0
-3720 -3749 3751 0
-3685 -3749 3751 0
3685 3720 -3751 0
3720 3749 -3751 0
3685 3749 -3751 0
3684 3719 -3754 0
-3684 -3719 -3754 0
-3684 3719 3754 0
3684 -3719 3754 0
3754 3751 -3732 0
-3754 -3751 -3732 0
-3754 3751 3732 0
3754 -3751 3732 0
-3684 -3719 3753 0
-3719 -3751 3753 0
-3684 -3751 3753 0
3684 3719 -3753 0
3719 3751 -3753 0
3684 3751 -3753 0
3683 3718 -3756 0
-3683 -3718 -3756 0
-3683 3718 3756 0
3683 -3718 3756 0
3756 3753 -3731 0
-3756 -3753 -3731 0
-3756 3753 3731 0
3756 -3753 3731 0
-3683 -3718 3755 0
-3718 -3753 3755 0
-3683 -3753 3755 0
3683 3718 -3755 0
3718 3753 -3755 0
3683 3753 -3755 0
3682 3717 -3758 0
-3682 -3717 -3758 0
-3682 3717 3758 0
3682 -3717 3758 0
3758 3755 -3730 0
-3758 -3755 -3730 0
-3758 3755 3730 0
3758 -3755 3730 0
-3682 -3717 3757 0
-3717 -3755 3757 0
-3682 -3755 3757 0
3682 3717 -3757 0
3717 3755 -3757 0
3682 3755 -3757 0
3681 3716 -3760 0
-3681 -3716 -3760 0
-3681 3716 3760 0
3681 -3716 3760 0
3760 3757 -3729 0
-3760 -3757 -3729 0
-3760 3757 3729 0
3760 -3757 3729 0
-3681 -3716 3759 0
-3716 -3757 3759 0
-3681 -3757 3759 0
3681 3716 -3759 0
3716 3757 -3759 0
3681 3757 -3759 0
3680 3715 -3761 0
-3680 -3715 -3761 0
-3680 3715 3761 0
3680 -3715 3761 0
3761 3759 -3728 0
-3761 -3759 -3728 0
-3761 3759 3728 0
3761 -3759 3728 0
-3680 -3715 3727 0
-3715 -3759 3727 0
-3680 -3759 3727 0
3680 3715 -3727 0
3715 3759 -3727 0
3680 3759 -3727 0
3461 -3762 0
3457 -3762 0
-3461 -3457 3762 0
3461 -3763 0
3458 -3763 0
-3461 -3458 3763 0
3461 -3764 0
3459 -3764 0
-3461 -3459 3764 0
3461 -3765 0
3460 -3765 0
-3461 -3460 3765 0
3461 -3766 0
3461 -3766 0
-3461 -3461 3766 0
3461 -3767 0
3462 -3767 0
-3461 -3462 3767 0
3461 -3768 0
3463 -3768 0
-3461 -3463 3768 0
3461 -3769 0
3464 -3769 0
-3461 -3464 3769 0
3461 -3770 0
3465 -3770 0
-3461 -3465 3770 0
3461 -3771 0
3466 -3771 0
-3461 -3466 3771 0
3461 -3772 0
3467 -3772 0
-3461 -3467 3772 0
3461 -3773 0
3468 -3773 0
-3461 -3468 3773 0
3738 3773 -3786 0
-3738 -3773 -3786 0
-3738 3773 3786 0
3738 -3773 3786 0
3738 -3787 0
3773 -3787 0
-3738 -3773 3787 0
3737 3772 -3789 0
-3737 -3772 -3789 0
-3737 3772 3789 0
3737 -3772 3789 0
3789 3787 -3785 0
-3789 -3787 -3785 0
-3789 3787 3785 0
3789 -3787 3785 0
-3737 -3772 3788 0
-3772 -3787 3788 0
-3737 -3787 3788 0
3737 3772 -3788 0
3772 3787 -3788 0
3737 3787 -3788 0
3736 3771 -3791 0
-3736 -3771 -3791 0
-3736 3771 3791 0
3736 -3771 3791 0
3791 3788 -3784 0
-3791 -3788 -3784 0
-3791 3788 3784 0
3791 -3788 3784 0
-3736 -3771 3790 0
-3771 -3788 3790 0
-3736 -3788 3790 0
3736 3771 -3790 0
3771 3788 -3790 0
3736 3788 -3790 0
3735 3770 -3793 0
-3735 -3770 -3793 0
-3735 3770 3793 0
3735 -3770 3793 0
3793 3790 -3783 0
-3793 -3790 -3783 0
-3793 3790 3783 0
3793 -3790 3783 0
-3735 -3770 3792 0
-3770 -3790 3792 0
-3735 -3790 3792 0
3735 3770 -3792 0
3770 3790 -3792 0
3735 3790 -3792 0
3734 3769 -3795 0
-3734 -3769 -3795 0
-3734 3769 3795 0
3734 -3769 3795 0
3795 3792 -3782 0
-3795 -3792 -3782 0
-3795 3792 3782 0
3795 -3792 3782 0
-3734 -3769 3794 0
-3769 -3792 3794 0
-3734 -3792 3794 0
3734 3769 -3794 0
3769 3792 -3794 0
3734 3792 -3794 0
3733 3768 -3797 0
-3733 -3768 -3797 0
-3733 3768 3797 0
3733 -3768 3797 0
3797 3794 -3781 0
-3797 -3794 -3781 0
-3797 3794 3781 0
3797 -3794 3781 0
-3733 -3768 3796 0
-3768 -3794 3796 0
-3733 -3794 3796 0
3733 3768 -3796 0
3768 3794 -3796 0
3733 3794 -3796 0
3732 3767 -3799 0
-3732 -3767 -3799 0
-3732 3767 3799 0
3732 -3767 3799 0
3799 3796 -3780 0
-3799 -3796 -3780 0
-3799 3796 3780 0
3799 -3796 3780 0
-3732 -3767 3798 0
-3767 -3796 3798 0
-3732 -3796 3798 0
3732 3767 -3798 0
3767 3796 -3798 0
3732 3796 -3798 0
3731 3766 -3801 0
-3731 -3766 -3801 0
-3731 3766 3801 0
3731 -3766 3801 0
3801 3798 -3779 0
-3801 -3798 -3779 0
-3801 3798 3779 0
3801 -3798 3779 0
-3731 -3766 3800 0
-3766 -3798 3800 0
-3731 -3798 3800 0
3731 3766 -3800 0
3766 3798 -3800 0
3731 3798 -3800 0
3730 3765 -3803 0
-3730 -3765 -3803 0
-3730 3765 3803 0
3730 -3765 3803 0
3803 3800 -3778 0
-3803 -3800 -3778 0
-3803 3800 3778 0
3803 -3800 3778 0
-3730 -3765 3802 0
-3765 -3800 3802 0
-3730 -3800 3802 0
3730 3765 -3802 0
3765 3800 -3802 0
3730 3800 -3802 0
3729 3764 -3805 0
-3729 -3764 -3805 0
-3729 3764 3805 0
3729 -3764 3805 0
3805 3802 -3777 0
-3805 -3802 -3777 0
-3805 3802 3777 0
3805 -3802 3777 0
-3729 -3764 3804 0
-3764 -3802 3804 0
-3729 -3802 3804 0
3729 3764 -3804 0
3764 3802 -3804 0
3729 3802 -3804 0
3728 3763 -3807 0
-3728 -3763 -3807 0
-3728 3763 3807 0
3728 -3763 3807 0
3807 3804 -3776 0
-3807 -3804 -3776 0
-3807 3804 3776 0
3807 -3804 3776 0
-3728 -3763 3806 0
-3763 -3804 3806 0
-3728 -3804 3806 0
3728 3763 -3806 0
3763 3804 -3806 0
3728 3804 -3806 0
3727 3762 -3808 0
-3727 -3762 -3808 0
-3727 3762 3808 0
3727 -3762 3808 0
3808 3806 -3775 0
-3808 -3806 -3775 0
-3808 3806 3775 0
3808 -3806 3775 0
-3727 -3762 3774 0
-3762 -3806 3774 0
-3727 -3806 3774 0
3727 3762 -3774 0
3762 3806 -3774 0
3727 3806 -3774 0
3460 -3809 0
3457 -3809 0
-3460 -3457 3809 0
3460 -3810 0
3458 -3810 0
-3460 -3458 3810 0
3460 -3811 0
3459 -3811 0
-3460 -3459 3811 0
3460 -3812 0
3460 -3812 0
-3460 -3460 3812 0
3460 -3813 0
3461 -3813 0
-3460 -3461 3813 0
3460 -3814 0
3462 -3814 0
-3460 -3462 3814 0
3460 -3815 0
3463 -3815 0
-3460 -3463 3815 0
3460 -3816 0
3464 -3816 0
-3460 -3464 3816 0
3460 -3817 0
3465 -3817 0
-3460 -3465 3817 0
3460 -3818 0
3466 -3818 0
-3460 -3466 3818 0
3460 -3819 0
3467 -3819 0
-3460 -3467 3819 0
3460 -3820 0
3468 -3820 0
-3460 -3468 3820 0
3785 3820 -3833 0
-3785 -3820 -3833 0
-3785 3820 3833 0
3785 -3820 3833 0
3785 -3834 0
3820 -3834 0
-3785 -3820 3834 0
3784 3819 -3836 0
-3784 -3819 -3836 0
-3784 3819 3836 0
3784 -3819 3836 0
3836 3834 -3832 0
-3836 -3834 -3832 0
-3836 3834 3832 0
3836 -3834 3832 0
-3784 -3819 3835 0
-3819 -3834 3835 0
-3784 -3834 3835 0
3784 3819 -3835 0
3819 3834 -3835 0
3784 3834 -3835 0
3783 3818 -3838 0
-3783 -3818 -3838 0
-3783 3818 3838 0
3783 -3818 3838 0
3838 3835 -3831 0
-3838 -3835 -3831 0
-3838 3835 3831 0
3838 -3835 3831 0
-3783 -3818 3837 0
-3818 -3835 3837 0
-3783 -3835 3837 0
3783 3818 -3837 0
3818 3835 -3837 0
3783 3835 -3837 0
3782 3817 -3840 0
-3782 -3817 -3840 0
-3782 3817 3840 0
3782 -3817 3840 0
3840 3837 -3830 0
-3840 -3837 -3830 0
-3840 3837 3830 0
3840 -3837 3830 0
-3782 -3817 3839 0
-3817 -3837 3839 0
-3782 -3837 3839 0
3782 3817 -3839 0
3817 3837 -3839 0
3782 3837 -3839 0
3781 3816 -3842 0
-3781 -3816 -3842 0
-3781 3816 3842 0
3781 -3816 3842 0
3842 3839 -3829 0
-3842 -3839 -3829 0
-3842 3839 3829 0
3842 -3839 3829 0
-3781 -3816 3841 0
-3816 -3839 3841 0
-3781 -3839 3841 0
3781 3816 -3841 0
3816 3839 -3841 0
3781 3839 -3841 0
3780 3815 -3844 0
-3780 -3815 -3844 0
-3780 3815 3844 0
3780 -3815 3844 0
3844 3841 -3828 0
-3844 -3841 -3828 0
-3844 3841 3828 0
3844 -3841 3828 0
-3780 -3815 3843 0
-3815 -3841 3843 0
-3780 -3841 3843 0
3780 3815 -3843 0
3815 3841 -3843 0
3780 3841 -3843 0
3779 3814 -3846 0
-3779 -3814 -3846 0
-3779 3814 3846 0
3779 -3814 3846 0
3846 3843 -3827 0
-3846 -3843 -3827 0
-3846 3843 3827 0
3846 -3843 3827 0
-3779 -3814 3845 0
-3814 -3843 3845 0
-3779 -3843 3845 0
3779 3814 -3845 0
3814 3843 -3845 0
3779 3843 -3845 0
3778 3813 -3848 0
-3778 -3813 -3848 0
-3778 3813 3848 0
3778 -3813 3848 0
3848 3845 -3826 0
-3848 -3845 -3826 0
-3848 3845 3826 0
3848 -3845 3826 0
-3778 -3813 3847 0
-3813 -3845 3847 0
-3778 -3845 3847 0
3778 3813 -3847 0
3813 3845 -3847 0
3778 3845 -3847 0
3777 3812 -3850 0
-3777 -3812 -3850 0
-3777 3812 3850 0
3777 -3812 3850 0
3850 3847 -3825 0
-3850 -3847 -3825 0
-3850 3847 3825 0
3850 -3847 3825 0
-3777 -3812 3849 0
-3812 -3847 3849 0
-3777 -3847 3849 0
3777 3812 -3849 0
3812 3847 -3849 0
3777 3847 -3849 0
3776 3811 -3852 0
-3776 -3811 -3852 0
-3776 3811 3852 0
3776 -3811 3852 0
3852 3849 -3824 0
-3852 -3849 -3824 0
-3852 3849 3824 0
3852 -3849 3824 0
-3776 -3811 3851 0
-3811 -3849 3851 0
-3776 -3849 3851 0
3776 3811 -3851 0
3811 3849 -3851 0
3776 3849 -3851 0
3775 3810 -3854 0
-3775 -3810 -3854 0
-3775 3810 3854 0
3775 -3810 3854 0
3854 3851 -3823 0
-3854 -3851 -3823 0
-3854 3851 3823 0
3854 -3851 3823 0
-3775 -3810 3853 0
-3810 -3851 3853 0
-3775 -3851 3853 0
3775 3810 -3853 0
3810 3851 -3853 0
3775 3851 -3853 0
3774 3809 -3855 0
-3774 -3809 -3855 0
-3774 3809 3855 0
3774 -3809 3855 0
3855 3853 -3822 0
-3855 -3853 -3822 0
-3855 3853 3822 0
3855 -3853 3822 0
-3774 -3809 3821 0
-3809 -3853 3821 0
-3774 -3853 3821 0
3774 3809 -3821 0
3809 3853 -3821 0
3774 3853 -3821 0
3459 -3856 0
3457 -3856 0
-3459 -3457 3856 0
3459 -3857 0
3458 -3857 0
-3459 -3458 3857 0
3459 -3858 0
3459 -3858 0
-3459 -3459 3858 0
3459 -3859 0
3460 -3859 0
-3459 -3460 3859 0
3459 -3860 0
3461 -3860 0
-3459 -3461 3860 0
3459 -3861 0
3462 -3861 0
-3459 -3462 3861 0
3459 -3862 0
3463 -3862 0
-3459 -3463 3862 0
3459 -3863 0
3464 -3863 0
-3459 -3464 3863 0
3459 -3864 0
3465 -3864 0
-3459 -3465 3864 0
3459 -3865 0
3466 -3865 0
-3459 -3466 3865 0
3459 -3866 0
3467 -3866 0
-3459 -3467 3866 0
3459 -3867 0
3468 -3867 0
-3459 -3468 3867 0
3832 3867 -3880 0
-3832 -3867 -3880 0
-3832 3867 3880 0
3832 -3867 3880 0
3832 -3881 0
3867 -3881 0
-3832 -3867 3881 0
3831 3866 -3883 0
-3831 -3866 -3883 0
-3831 3866 3883 0
3831 -3866 3883 0
3883 3881 -3879 0
-3883 -3881 -3879 0
-3883 3881 3879 0
3883 -3881 3879 0
-3831 -3866 3882 0
-3866 -3881 3882 0
-3831 -3881 3882 0
3831 3866 -3882 0
3866 3881 -3882 0
3831 3881 -3882 0
3830 3865 -3885 0
-3830 -3865 -3885 0
-3830 3865 3885 0
3830 -3865 3885 0
3885 3882 -3878 0
-3885 -3882 -3878 0
-3885 3882 3878 0
3885 -3882 3878 0
-3830 -3865 3884 0
-3865 -3882 3884 0
-3830 -3882 3884 0
3830 3865 -3884 0
3865 3882 -3884 0
3830 3882 -3884 0
3829 3864 -3887 0
-3829 -3864 -3887 0
-3829 3864 3887 0
3829 -3864 3887 0
3887 3884 -3877 0
-3887 -3884 -3877 0
-3887 3884 3877 0
3887 -3884 3877 0
-3829 -3864 3886 0
-3864 -3884 3886 0
-3829 -3884 3886 0
3829 3864 -3886 0
3864 3884 -3886 0
3829 3884 -3886 0
3828 3863 -3889 0
-3828 -3863 -3889 0
-3828 3863 3889 0
3828 -3863 3889 0
3889 3886 -3876 0
-3889 -3886 -3876 0
-3889 3886 3876 0
3889 -3886 3876 0
-3828 -3863 3888 0
-3863 -3886 3888 0
-3828 -3886 3888 0
3828 3863 -3888 0
3863 3886 -3888 0
3828 3886 -3888 0
3827 3862 -3891 0
-3827 -3862 -3891 0
-3827 3862 3891 0
3827 -3862 3891 0
3891 3888 -3875 0
-3891 -3888 -3875 0
-3891 3888 3875 0
3891 -3888 3875 0
-3827 -3862 3890 0
-3862 -3888 3890 0
-3827 -3888 3890 0
3827 3862 -3890 0
3862 3888 -3890 0
3827 3888 -3890 0
3826 3861 -3893 0
-3826 -3861 -3893 0
-3826 3861 3893 0
3826 -3861 3893 0
3893 3890 -3874 0
-3893 -3890 -3874 0
-3893 3890 3874 0
3893 -3890 3874 0
-3826 -3861 3892 0
-3861 -3890 3892 0
-3826 -3890 3892 0
3826 3861 -3892 0
3861 3890 -3892 0
3826 3890 -3892 0
3825 3860 -3895 0
-3825 -3860 -3895 0
-3825 3860 3895 0
3825 -3860 3895 0
3895 3892 -3873 0
-3895 -3892 -3873 0
-3895 3892 3873 0
3895 -3892 3873 0
-3825 -3860 3894 0
-3860 -3892 3894 0
-3825 -3892 3894 0
3825 3860 -3894 0
3860 3892 -3894 0
3825 3892 -3894 0
3824 3859 -3897 0
-3824 -3859 -3897 0
-3824 3859 3897 0
3824 -3859 3897 0
3897 3894 -3872 0
-3897 -3894 -3872 0
-3897 3894 3872 0
3897 -3894 3872 0
-3824 -3859 3896 0
-3859 -3894 3896 0
-3824 -3894 3896 0
3824 3859 -3896 0
3859 3894 -3896 0
3824 3894 -3896 0
3823 3858 -3899 0
-3823 -3858 -3899 0
-3823 3858 3899 0
3823 -3858 3899 0
3899 3896 -3871 0
-3899 -3896 -3871 0
-3899 3896 3871 0
3899 -3896 3871 0
-3823 -3858 3898 0
-3858 -3896 3898 0
-3823 -3896 3898 0
3823 3858 -3898 0
3858 3896 -3898 0
3823 3896 -3898 0
3822 3857 -3901 0
-3822 -3857 -3901 0
-3822 3857 3901 0
3822 -3857 3901 0
3901 3898 -3870 0
-3901 -3898 -3870 0
-3901 3898 3870 0
3901 -3898 3870 0
-3822 -3857 3900 0
-3857 -3898 3900 0
-3822 -3898 3900 0
3822 3857 -3900 0
3857 3898 -3900 0
3822 3898 -3900 0
3821 3856 -3902 0
-3821 -3856 -3902 0
-3821 3856 3902 0
3821 -3856 3902 0
3902 3900 -3869 0
-3902 -3900 -3869 0
-3902 3900 3869 0
3902 -3900 3869 0
-3821 -3856 3868 0
-3856 -3900 3868 0
-3821 -3900 3868 0
3821 3856 -3868 0
3856 3900 -3868 0
3821 3900 -3868 0
3458 -3903 0
3457 -3903 0
-3458 -3457 3903 0
3458 -3904 0
3458 -3904 0
-3458 -3458 3904 0
3458 -3905 0
3459 -3905 0
-3458 -3459 3905 0
3458 -3906 0
3460 -3906 0
-3458 -3460 3906 0
3458 -3907 0
3461 -3907 0
-3458 -3461 3907 0
3458 -3908 0
3462 -3908 0
-3458 -3462 3908 0
3458 -3909 0
3463 -3909 0
-3458 -3463 3909 0
3458 -3910 0
3464 -3910 0
-3458 -3464 3910 0
3458 -3911 0
3465 -3911 0
-3458 -3465 3911 0
3458 -3912 0
3466 -3912 0
-3458 -3466 3912 0
3458 -3913 0
3467 -3913 0
-3458 -3467 3913 0
3458 -3914 0
3468 -3914 0
-3458 -3468 3914 0
3879 3914 -3927 0
-3879 -3914 -3927 0
-3879 3914 3927 0
3879 -3914 3927 0
3879 -3928 0
3914 -3928 0
-3879 -3914 3928 0
3878 3913 -3930 0
-3878 -3913 -3930 0
-3878 3913 3930 0
3878 -3913 3930 0
3930 3928 -3926 0
-3930 -3928 -3926 0
-3930 3928 3926 0
3930 -3928 3926 0
-3878 -3913 3929 0
-3913 -3928 3929 0
-3878 -3928 3929 0
3878 3913 -3929 0
3913 3928 -3929 0
3878 3928 -3929 0
3877 3912 -3932 0
-3877 -3912 -3932 0
-3877 3912 3932 0
3877 -3912 3932 0
3932 3929 -3925 0
-3932 -3929 -3925 0
-3932 3929 3925 0
3932 -3929 3925 0
-3877 -3912 3931 0
-3912 -3929 3931 0
-3877 -3929 3931 0
3877 3912 -3931 0
3912 3929 -3931 0
3877 3929 -3931 0
3876 3911 -3934 0
-3876 -3911 -3934 0
-3876 3911 3934 0
3876 -3911 3934 0
3934 3931 -3924 0
-3934 -3931 -3924 0
-3934 3931 3924 0
3934 -3931 3924 0
-3876 -3911 3933 0
-3911 -3931 3933 0
-3876 -3931 3933 0
3876 3911 -3933 0
3911 3931 -3933 0
3876 3931 -3933 0
3875 3910 -3936 0
-3875 -3910 -3936 0
-3875 3910 3936 0
3875 -3910 3936 0
3936 3933 -3923 0
-3936 -3933 -3923 0
-3936 3933 3923 0
3936 -3933 3923 0
-3875 -3910 3935 0
-3910 -3933 3935 0
-3875 -3933 3935 0
3875 3910 -3935 0
3910 3933 -3935 0
3875 3933 -3935 0
3874 3909 -3938 0
-3874 -3909 -3938 0
-3874 3909 3938 0
3874 -3909 3938 0
3938 3935 -3922 0
-3938 -3935 -3922 0
-3938 3935 3922 0
3938 -3935 3922 0
-3874 -3909 3937 0
-3909 -3935 3937 0
-3874 -3935 3937 0
3874 3909 -3937 0
3909 3935 -3937 0
3874 3935 -3937 0
3873 3908 -3940 0
-3873 -3908 -3940 0
-3873 3908 3940 0
3873 -3908 3940 0
3940 3937 -3921 0
-3940 -3937 -3921 0
-3940 3937 3921 0
3940 -3937 3921 0
-3873 -3908 3939 0
-3908 -3937 3939 0
-3873 -3937 3939 0
3873 3908 -3939 0
3908 3937 -3939 0
3873 3937 -3939 0
3872 3907 -3942 0
-3872 -3907 -3942 0
-3872 3907 3942 0
3872 -3907 3942 0
3942 3939 -3920 0
-3942 -3939 -3920 0
-3942 3939 3920 0
3942 -3939 3920 0
-3872 -3907 3941 0
-3907 -3939 3941 0
-3872 -3939 3941 0
3872 3907 -3941 0
3907 3939 -3941 0
3872 3939 -3941 0
3871 3906 -3944 0
-3871 -3906 -3944 0
-3871 3906 3944 0
3871 -3906 3944 0
3944 3941 -3919 0
-3944 -3941 -3919 0
-3944 3941 3919 0
3944 -3941 3919 0
-3871 -3906 3943 0
-3906 -3941 3943 0
-3871 -3941 3943 0
3871 3906 -3943 0
3906 3941 -3943 0
3871 3941 -3943 0
3870 3905 -3946 0
-3870 -3905 -3946 0
-3870 3905 3946 0
3870 -3905 3946 0
3946 3943 -3918 0
-3946 -3943 -3918 0
-3946 3943 3918 0
3946 -3943 3918 0
-3870 -3905 3945 0
-3905 -3943 3945 0
-3870 -3943 3945 0
3870 3905 -3945 0
3905 3943 -3945 0
3870 3943 -3945 0
3869 3904 -3948 0
-3869 -3904 -3948 0
-3869 3904 3948 0
3869 -3904 3948 0
3948 3945 -3917 0
-3948 -3945 -3917 0
-3948 3945 3917 0
3948 -3945 3917 0
-3869 -3904 3947 0
-3904 -3945 3947 0
-3869 -3945 3947 0
3869 3904 -3947 0
3904 3945 -3947 0
3869 3945 -3947 0
3868 3903 -3949 0
-3868 -3903 -3949 0
-3868 3903 3949 0
3868 -3903 3949 0
3949 3947 -3916 0
-3949 -3947 -3916 0
-3949 3947 3916 0
3949 -3947 3916 0
-3868 -3903 3915 0
-3903 -3947 3915 0
-3868 -3947 3915 0
3868 3903 -3915 0
3903 3947 -3915 0
3868 3947 -3915 0
3457 -3950 0
3457 -3950 0
-3457 -3457 3950 0
3457 -3951 0
3458 -3951 0
-3457 -3458 3951 0
3457 -3952 0
3459 -3952 0
-3457 -3459 3952 0
3457 -3953 0
3460 -3953 0
-3457 -3460 3953 0
3457 -3954 0
3461 -3954 0
-3457 -3461 3954 0
3457 -3955 0
3462 -3955 0
-3457 -3462 3955 0
3457 -3956 0
3463 -3956 0
-3457 -3463 3956 0
3457 -3957 0
3464 -3957 0
-3457 -3464 3957 0
3457 -3958 0
3465 -3958 0
-3457 -3465 3958 0
3457 -3959 0
3466 -3959 0
-3457 -3466 3959 0
3457 -3960 0
3467 -3960 0
-3457 -3467 3960 0
3457 -3961 0
3468 -3961 0
-3457 -3468 3961 0
3926 3961 -3974 0
-3926 -3961 -3974 0
-3926 3961 3974 0
3926 -3961 3974 0
3926 -3975 0
3961 -3975 0
-3926 -3961 3975 0
3925 3960 -3977 0
-3925 -3960 -3977 0
-3925 3960 3977 0
3925 -3960 3977 0
3977 3975 -3973 0
-3977 -3975 -3973 0
-3977 3975 3973 0
3977 -3975 3973 0
-3925 -3960 3976 0
-3960 -3975 3976 0
-3925 -3975 3976 0
3925 3960 -3976 0
3960 3975 -3976 0
3925 3975 -3976 0
3924 3959 -3979 0
-3924 -3959 -3979 0
-3924 3959 3979 0
3924 -3959 3979 0
3979 3976 -3972 0
-3979 -3976 -3972 0
-3979 3976 3972 0
3979 -3976 3972 0
-3924 -3959 3978 0
-3959 -3976 3978 0
-3924 -3976 3978 0
3924 3959 -3978 0
3959 3976 -3978 0
3924 3976 -3978 0
3923 3958 -3981 0
-3923 -3958 -3981 0
-3923 3958 3981 0
3923 -3958 3981 0
3981 3978 -3971 0
-3981 -3978 -3971 0
-3981 3978 3971 0
3981 -3978 3971 0
-3923 -3958 3980 0
-3958 -3978 3980 0
-3923 -3978 3980 0
3923 3958 -3980 0
3958 3978 -3980 0
3923 3978 -3980 0
3922 3957 -3983 0
-3922 -3957 -3983 0
-3922 3957 3983 0
3922 -3957 3983 0
3983 3980 -3970 0
-3983 -3980 -3970 0
-3983 3980 3970 0
3983 -3980 3970 0
-3922 -3957 3982 0
-3957 -3980 3982 0
-3922 -3980 3982 0
3922 3957 -3982 0
3957 3980 -3982 0
3922 3980 -3982 0
3921 3956 -3985 0
-3921 -3956 -3985 0
-3921 3956 3985 0
3921 -3956 3985 0
3985 3982 -3969 0
-3985 -3982 -3969 0
-3985 3982 3969 0
3985 -3982 3969 0
-3921 -3956 3984 0
-3956 -3982 3984 0
-3921 -3982 3984 0
3921 3956 -3984 0
3956 3982 -3984 0
3921 3982 -3984 0
3920 3955 -3987 0
-3920 -3955 -3987 0
-3920 3955 3987 0
3920 -3955 3987 0
3987 3984 -3968 0
-3987 -3984 -3968 0
-3987 3984 3968 0
3987 -3984 3968 0
-3920 -3955 3986 0
-3955 -3984 3986 0
-3920 -3984 3986 0
3920 3955 -3986 0
3955 3984 -3986 0
3920 3984 -3986 0
3919 3954 -3989 0
-3919 -3954 -3989 0
-3919 3954 3989 0
3919 -3954 3989 0
3989 3986 -3967 0
-3989 -3986 -3967 0
-3989 3986 3967 0
3989 -3986 3967 0
-3919 -3954 3988 0
-3954 -3986 3988 0
-3919 -3986 3988 0
3919 3954 -3988 0
3954 3986 -3988 0
3919 3986 -3988 0
3918 3953 -3991 0
-3918 -3953 -3991 0
-3918 3953 3991 0
3918 -3953 3991 0
3991 3988 -3966 0
-3991 -3988 -3966 0
-3991 3988 3966 0
3991 -3988 3966 0
-3918 -3953 3990 0
-3953 -3988 3990 0
-3918 -3988 3990 0
3918 3953 -3990 0
3953 3988 -3990 0
3918 3988 -3990 0
3917 3952 -3993 0
-3917 -3952 -3993 0
-3917 3952 3993 0
3917 -3952 3993 0
3993 3990 -3965 0
-3993 -3990 -3965 0
-3993 3990 3965 0
3993 -3990 3965 0
-3917 -3952 3992 0
-3952 -3990 3992 0
-3917 -3990 3992 0
3917 3952 -3992 0
3952 3990 -3992 0
3917 3990 -3992 0
3916 3951 -3995 0
-3916 -3951 -3995 0
-3916 3951 3995 0
3916 -3951 3995 0
3995 3992 -3964 0
-3995 -3992 -3964 0
-3995 3992 3964 0
3995 -3992 3964 0
-3916 -3951 3994 0
-3951 -3992 3994 0
-3916 -3992 3994 0
3916 3951 -3994 0
3951 3992 -3994 0
3916 3992 -3994 0
3915 3950 -3996 0
-3915 -3950 -3996 0
-3915 3950 3996 0
3915 -3950 3996 0
3996 3994 -3963 0
-3996 -3994 -3963 0
-3996 3994 3963 0
3996 -3994 3963 0
-3915 -3950 3962 0
-3950 -3994 3962 0
-3915 -3994 3962 0
3915 3950 -3962 0
3950 3994 -3962 0
3915 3994 -3962 0
3962 -145 0
-3962 145 0
3963 -146 0
-3963 146 0
3964 -147 0
-3964 147 0
3965 -148 0
-3965 148 0
3966 -149 0
-3966 149 0
3967 -150 0
-3967 150 0
3968 -151 0
-3968 151 0
3969 -152 0
-3969 152 0
3970 -153 0
-3970 153 0
3971 -154 0
-3971 154 0
3972 -155 0
-3972 155 0
3973 -156 0
-3973 156 0
3974 -157 0
-3974 157 0
3927 -158 0
-3927 158 0
3880 -159 0
-3880 159 0
3833 -160 0
-3833 160 0
3786 -161 0
-3786 161 0
3739 -162 0
-3739 162 0
3692 -163 0
-3692 163 0
3645 -164 0
-3645 164 0
3598 -165 0
-3598 165 0
3551 -166 0
-3551 166 0
3505 -167 0
-3505 167 0
3480 -168 0
-3480 168 0
169 170 171 172 173 174 175 176 177 178 179 180 181 182 183 184 185 186 187 188 189 190 191 192 0
4008 -4009 0
3997 -4009 0
-4008 -3997 4009 0
4008 -4010 0
3998 -4010 0
-4008 -3998 4010 0
4008 -4011 0
3999 -4011 0
-4008 -3999 4011 0
4008 -4012 0
4000 -4012 0
-4008 -4000 4012 0
4008 -4013 0
4001 -4013 0
-4008 -4001 4013 0
4008 -4014 0
4002 -4014 0
-4008 -4002 4014 0
4008 -4015 0
4003 -4015 0
-4008 -4003 4015 0
4008 -4016 0
4004 -4016 0
-4008 -4004 4016 0
4008 -4017 0
4005 -4017 0
-4008 -4005 4017 0
4008 -4018 0
4006 -4018 0
-4008 -4006 4018 0
4008 -4019 0
4007 -4019 0
-4008 -4007 4019 0
4008 -4020 0
4008 -4020 0
-4008 -4008 4020 0
4007 -4021 0
3997 -4021 0
-4007 -3997 4021 0
4007 -4022 0
3998 -4022 0
-4007 -3998 4022 0
4007 -4023 0
3999 -4023 0
-4007 -3999 4023 0
4007 -4024 0
4000 -4024 0
-4007 -4000 4024 0
4007 -4025 0
4001 -4025 0
-4007 -4001 4025 0
4007 -4026 0
4002 -4026 0
-4007 -4002 4026 0
4007 -4027 0
4003 -4027 0
-4007 -4003 4027 0
4007 -4028 0
4004 -4028 0
-4007 -4004 4028 0
4007 -4029 0
4005 -4029 0
-4007 -4005 4029 0
4007 -4030 0
4006 -4030 0
-4007 -4006 4030 0
4007 -4031 0
4007 -4031 0
-4007 -4007 4031 0
4007 -4032 0
4008 -4032 0
-4007 -4008 4032 0
4019 4032 -4045 0
-4019 -4032 -4045 0
-4019 4032 4045 0
4019 -4032 4045 0
4019 -4046 0
4032 -4046 0
-4019 -4032 4046 0
4018 4031 -4048 0
-4018 -4031 -4048 0
-4018 4031 4048 0
4018 -4031 4048 0
4048 4046 -4044 0
-4048 -4046 -4044 0
-4048 4046 4044 0
4048 -4046 4044 0
-4018 -4031 4047 0
-4031 -4046 4047 0
-4018 -4046 4047 0
4018 4031 -4047 0
4031 4046 -4047 0
4018 4046 -4047 0
4017 4030 -4050 0
-4017 -4030 -4050 0
-4017 4030 4050 0
4017 -4030 4050 0
4050 4047 -4043 0
-4050 -4047 -4043 0
-4050 4047 4043 0
4050 -4047 4043 0
-4017 -4030 4049 0
-4030 -4047 4049 0
-4017 -4047 4049 0
4017 4030 -4049 0
4030 4047 -4049 0
4017 4047 -4049 0
4016 4029 -4052 0
-4016 -4029 -4052 0
-4016 4029 4052 0
4016 -4029 4052 0
4052 4049 -4042 0
-4052 -4049 -4042 0
-4052 4049 4042 0
4052 -4049 4042 0
-4016 -4029 4051 0
-4029 -4049 4051 0
-4016 -4049 4051 0
4016 4029 -4051 0
4029 4049 -4051 0
4016 4049 -4051 0
4015 4028 -4054 0
-4015 -4028 -4054 0
-4015 4028 4054 0
4015 -4028 4054 0
4054 4051 -4041 0
-4054 -4051 -4041 0
-4054 4051 4041 0
4054 -4051 4041 0
-4015 -4028 4053 0
-4028 -4051 4053 0
-4015 -4051 4053 0
4015 4028 -4053 0
4028 4051 -4053 0
4015 4051 -4053 0
4014 4027 -4056 0
-4014 -4027 -4056 0
-4014 4027 4056 0
4014 -4027 4056 0
4056 4053 -4040 0
-4056 -4053 -4040 0
-4056 4053 4040 0
4056 -4053 4040 0
-4014 -4027 4055 0
-4027 -4053 4055 0
-4014 -4053 4055 0
4014 4027 -4055 0
4027 4053 -4055 0
4014 4053 -4055 0
4013 4026 -4058 0
-4013 -4026 -4058 0
-4013 4026 4058 0
4013 -4026 4058 0
4058 4055 -4039 0
-4058 -4055 -4039 0
-4058 4055 4039 0
4058 -4055 4039 0
-4013 -4026 4057 0
-4026 -4055 4057 0
-4013 -4055 4057 0
4013 4026 -4057 0
4026 4055 -4057 0
4013 4055 -4057 0
4012 4025 -4060 0
-4012 -4025 -4060 0
-4012 4025 4060 0
4012 -4025 4060 0
4060 4057 -4038 0
-4060 -4057 -4038 0
-4060 4057 4038 0
4060 -4057 4038 0
-4012 -4025 4059 0
-4025 -4057 4059 0
-4012 -4057 4059 0
4012 4025 -4059 0
4025 4057 -4059 0
4012 4057 -4059 0
4011 4024 -4062 0
-4011 -4024 -4062 0
-4011 4024 4062 0
4011 -4024 4062 0
4062 4059 -4037 0
-4062 -4059 -4037 0
-4062 4059 4037 0
4062 -4059 4037 0
-4011 -4024 4061 0
-4024 -4059 4061 0
-4011 -4059 4061 0
4011 4024 -4061 0
4024 4059 -4061 0
4011 4059 -4061 0
4010 4023 -4064 0
-4010 -4023 -4064 0
-4010 4023 4064 0
4010 -4023 4064 0
4064 4061 -4036 0
-4064 -4061 -4036 0
-4064 4061 4036 0
4064 -4061 4036 0
-4010 -4023 4063 0
-4023 -4061 4063 0
-4010 -4061 4063 0
4010 4023 -4063 0
4023 4061 -4063 0
4010 4061 -4063 0
4009 4022 -4066 0
-4009 -4022 -4066 0
-4009 4022 4066 0
4009 -4022 4066 0
4066 4063 -4035 0
-4066 -4063 -4035 0
-4066 4063 4035 0
4066 -4063 4035 0
-4009 -4022 4065 0
-4022 -4063 4065 0
-4009 -4063 4065 0
4009 4022 -4065 0
4022 4063 -4065 0
4009 4063 -4065 0
4021 4065 -4034 0
-4021 -4065 -4034 0
-4021 4065 4034 0
4021 -4065 4034 0
4021 -4033 0
4065 -4033 0
-4021 -4065 4033 0
4006 -4067 0
3997 -4067 0
-4006 -3997 4067 0
4006 -4068 0
3998 -4068 0
-4006 -3998 4068 0
4006 -4069 0
3999 -4069 0
-4006 -3999 4069 0
4006 -4070 0
4000 -4070 0
-4006 -4000 4070 0
4006 -4071 0
4001 -4071 0
-4006 -4001 4071 0
4006 -4072 0
4002 -4072 0
-4006 -4002 4072 0
4006 -4073 0
4003 -4073 0
-4006 -4003 4073 0
4006 -4074 0
4004 -4074 0
-4006 -4004 4074 0
4006 -4075 0
4005 -4075 0
-4006 -4005 4075 0
4006 -4076 0
4006 -4076 0
-4006 -4006 4076 0
4006 -4077 0
4007 -4077 0
-4006 -4007 4077 0
4006 -4078 0
4008 -4078 0
-4006 -4008 4078 0
4044 4078 -4091 0
-4044 -4078 -4091 0
-4044 4078 4091 0
4044 -4078 4091 0
4044 -4092 0
4078 -4092 0
-4044 -4078 4092 0
4043 4077 -4094 0
-4043 -4077 -4094 0
-4043 4077 4094 0
4043 -4077 4094 0
4094 4092 -4090 0
-4094 -4092 -4090 0
-4094 4092 4090 0
4094 -4092 4090 0
-4043 -4077 4093 0
-4077 -4092 4093 0
-4043 -4092 4093 0
4043 4077 -4093 0
4077 4092 -4093 0
4043 4092 -4093 0
4042 4076 -4096 0
-4042 -4076 -4096 0
-4042 4076 4096 0
4042 -4076 4096 0
4096 4093 -4089 0
-4096 -4093 -4089 0
-4096 4093 4089 0
4096 -4093 4089 0
-4042 -4076 4095 0
-4076 -4093 4095 0
-4042 -4093 4095 0
4042 4076 -4095 0
4076 4093 -4095 0
4042 4093 -4095 0
4041 4075 -4098 0
-4041 -4075 -4098 0
-4041 4075 4098 0
4041 -4075 4098 0
4098 4095 -4088 0
-4098 -4095 -4088 0
-4098 4095 4088 0
4098 -4095 4088 0
-4041 -4075 4097 0
-4075 -4095 4097 0
-4041 -4095 4097 0
4041 4075 -4097 0
4075 4095 -4097 0
4041 4095 -4097 0
4040 4074 -4100 0
-4040 -4074 -4100 0
-4040 4074 4100 0
4040 -4074 4100 0
4100 4097 -4087 0
-4100 -4097 -4087 0
-4100 4097 4087 0
4100 -4097 4087 0
-4040 -4074 4099 0
-4074 -4097 4099 0
-4040 -4097 4099 0
4040 4074 -4099 0
4074 4097 -4099 0
4040 4097 -4099 0
4039 4073 -4102 0
-4039 -4073 -4102 0
-4039 4073 4102 0
4039 -4073 4102 0
4102 4099 -4086 0
-4102 -4099 -4086 0
-4102 4099 4086 0
4102 -4099 4086 0
-4039 -4073 4101 0
-4073 -4099 4101 0
-4039 -4099 4101 0
4039 4073 -4101 0
4073 4099 -4101 0
4039 4099 -4101 0
4038 4072 -4104 0
-4038 -4072 -4104 0
-4038 4072 4104 0
4038 -4072 4104 0
4104 4101 -4085 0
-4104 -4101 -4085 0
-4104 4101 4085 0
4104 -4101 4085 0
-4038 -4072 4103 0
-4072 -4101 4103 0
-4038 -4101 4103 0
4038 4072 -4103 0
4072 4101 -4103 0
4038 4101 -4103 0
4037 4071 -4106 0
-4037 -4071 -4106 0
-4037 4071 4106 0
4037 -4071 4106 0
4106 4103 -4084 0
-4106 -4103 -4084 0
-4106 4103 4084 0
4106 -4103 4084 0
-4037 -4071 4105 0
-4071 -4103 4105 0
-4037 -4103 4105 0
4037 4071 -4105 0
4071 4103 -4105 0
4037 4103 -4105 0
4036 4070 -4108 0
-4036 -4070 -4108 0
-4036 4070 4108 0
4036 -4070 4108 0
4108 4105 -4083 0
-4108 -4105 -4083 0
-4108 4105 4083 0
4108 -4105 4083 0
-4036 -4070 4107 0
-4070 -4105 4107 0
-4036 -4105 4107 0
4036 4070 -4107 0
4070 4105 -4107 0
4036 4105 -4107 0
4035 4069 -4110 0
-4035 -4069 -4110 0
-4035 4069 4110 0
4035 -4069 4110 0
4110 4107 -4082 0
-4110 -4107 -4082 0
-4110 4107 4082 0
4110 -4107 4082 0
-4035 -4069 4109 0
-4069 -4107 4109 0
-4035 -4107 4109 0
4035 4069 -4109 0
4069 4107 -4109 0
4035 4107 -4109 0
4034 4068 -4112 0
-4034 -4068 -4112 0
-4034 4068 4112 0
4034 -4068 4112 0
4112 4109 -4081 0
-4112 -4109 -4081 0
-4112 4109 4081 0
4112 -4109 4081 0
-4034 -4068 4111 0
-4068 -4109 4111 0
-4034 -4109 4111 0
4034 4068 -4111 0
4068 4109 -4111 0
4034 4109 -4111 0
4033 4067 -4113 0
-4033 -4067 -4113 0
-4033 4067 4113 0
4033 -4067 4113 0
4113 4111 -4080 0
-4113 -4111 -4080 0
-4113 4111 4080 0
4113 -4111 4080 0
-4033 -4067 4079 0
-4067 -4111 4079 0
-4033 -4111 4079 0
4033 4067 -4079 0
4067 4111 -4079 0
4033 4111 -4079 0
4005 -4114 0
3997 -4114 0
-4005 -3997 4114 0
4005 -4115 0
3998 -4115 0
-4005 -3998 4115 0
4005 -4116 0
3999 -4116 0
-4005 -3999 4116 0
4005 -4117 0
4000 -4117 0
-4005 -4000 4117 0
4005 -4118 0
4001 -4118 0
-4005 -4001 4118 0
4005 -4119 0
4002 -4119 0
-4005 -4002 4119 0
4005 -4120 0
4003 -4120 0
-4005 -4003 4120 0
4005 -4121 0
4004 -4121 0
-4005 -4004 4121 0
4005 -4122 0
4005 -4122 0
-4005 -4005 4122 0
4005 -4123 0
4006 -4123 0
-4005 -4006 4123 0
4005 -4124 0
4007 -4124 0
-4005 -4007 4124 0
4005 -4125 0
4008 -4125 0
-4005 -4008 4125 0
4090 4125 -4138 0
-4090 -4125 -4138 0
-4090 4125 4138 0
4090 -4125 4138 0
4090 -4139 0
4125 -4139 0
-4090 -4125 4139 0
4089 4124 -4141 0
-4089 -4124 -4141 0
-4089 4124 4141 0
4089 -4124 4141 0
4141 4139 -4137 0
-4141 -4139 -4137 0
-4141 4139 4137 0
4141 -4139 4137 0
-4089 -4124 4140 0
-4124 -4139 4140 0
-4089 -4139 4140 0
4089 4124 -4140 0
4124 4139 -4140 0
4089 4139 -4140 0
4088 4123 -4143 0
-4088 -4123 -4143 0
-4088 4123 4143 0
4088 -4123 4143 0
4143 4140 -4136 0
-4143 -4140 -4136 0
-4143 4140 4136 0
4143 -4140 4136 0
-4088 -4123 4142 0
-4123 -4140 4142 0
-4088 -4140 4142 0
4088 4123 -4142 0
4123 4140 -4142 0
4088 4140 -4142 0
4087 4122 -4145 0
-4087 -4122 -4145 0
-4087 4122 4145 0
4087 -4122 4145 0
4145 4142 -4135 0
-4145 -4142 -4135 0
-4145 4142 4135 0
4145 -4142 4135 0
-4087 -4122 4144 0
-4122 -4142 4144 0
-4087 -4142 4144 0
4087 4122 -4144 0
4122 4142 -4144 0
4087 4142 -4144 0
4086 4121 -4147 0
-4086 -4121 -4147 0
-4086 4121 4147 0
4086 -4121 4147 0
4147 4144 -4134 0
-4147 -4144 -4134 0
-4147 4144 4134 0
4147 -4144 4134 0
-4086 -4121 4146 0
-4121 -4144 4146 0
-4086 -4144 4146 0
4086 4121 -4146 0
4121 4144 -4146 0
4086 4144 -4146 0
4085 4120 -4149 0
-4085 -4120 -4149 0
-4085 4120 4149 0
4085 -4120 4149 0
4149 4146 -4133 0
-4149 -4146 -4133 0
-4149 4146 4133 0
4149 -4146 4133 0
-4085 -4120 4148 0
-4120 -4146 4148 0
-4085 -4146 4148 0
4085 4120 -4148 0
4120 4146 -4148 0
4085 4146 -4148 0
4084 4119 -4151 0
-4084 -4119 -4151 0
-4084 4119 4151 0
4084 -4119 4151 0
4151 4148 -4132 0
-4151 -4148 -4132 0
-4151 4148 4132 0
4151 -4148 4132 0
-4084 -4119 4150 0
-4119 -4148 4150 0
-4084 -4148 4150 0
4084 4119 -4150 0
4119 4148 -4150 0
4084 4148 -4150 0
4083 4118 -4153 0
-4083 -4118 -4153 0
-4083 4118 4153 0
4083 -4118 4153 0
4153 4150 -4131 0
-4153 -4150 -4131 0
-4153 4150 4131 0
4153 -4150 4131 0
-4083 -4118 4152 0
-4118 -4150 4152 0
-4083 -4150 4152 0
4083 4118 -4152 0
4118 4150 -4152 0
4083 4150 -4152 0
4082 4117 -4155 0
-4082 -4117 -4155 0
-4082 4117 4155 0
4082 -4117 4155 0
4155 4152 -4130 0
-4155 -4152 -4130 0
-4155 4152 4130 0
4155 -4152 4130 0
-4082 -4117 4154 0
-4117 -4152 4154 0
-4082 -4152 4154 0
4082 4117 -4154 0
4117 4152 -4154 0
4082 4152 -4154 0
4081 4116 -4157 0
-4081 -4116 -4157 0
-4081 4116 4157 0
4081 -4116 4157 0
4157 4154 -4129 0
-4157 -4154 -4129 0
-4157 4154 4129 0
4157 -4154 4129 0
-4081 -4116 4156 0
-4116 -4154 4156 0
-4081 -4154 4156 0
4081 4116 -4156 0
4116 4154 -4156 0
4081 4154 -4156 0
4080 4115 -4159 0
-4080 -4115 -4159 0
-4080 4115 4159 0
4080 -4115 4159 0
4159 4156 -4128 0
-4159 -4156 -4128 0
-4159 4156 4128 0
4159 -4156 4128 0
-4080 -4115 4158 0
-4115 -4156 4158 0
-4080 -4156 4158 0
4080 4115 -4158 0
4115 4156 -4158 0
4080 4156 -4158 0
4079 4114 -4160 0
-4079 -4114 -4160 0
-4079 4114 4160 0
4079 -4114 4160 0
4160 4158 -4127 0
-4160 -4158 -4127 0
-4160 4158 4127 0
4160 -4158 4127 0
-4079 -4114 4126 0
-4114 -4158 4126 0
-4079 -4158 4126 0
4079 4114 -4126 0
4114 4158 -4126 0
4079 4158 -4126 0
4004 -4161 0
3997 -4161 0
-4004 -3997 4161 0
4004 -4162 0
3998 -4162 0
-4004 -3998 4162 0
4004 -4163 0
3999 -4163 0
-4004 -3999 4163 0
4004 -4164 0
4000 -4164 0
-4004 -4000 4164 0
4004 -4165 0
4001 -4165 0
-4004 -4001 4165 0
4004 -4166 0
4002 -4166 0
-4004 -4002 4166 0
4004 -4167 0
4003 -4167 0
-4004 -4003 4167 0
4004 -4168 0
4004 -4168 0
-4004 -4004 4168 0
4004 -4169 0
4005 -4169 0
-4004 -4005 4169 0
4004 -4170 0
4006 -4170 0
-4004 -4006 4170 0
4004 -4171 0
4007 -4171 0
-4004 -4007 4171 0
4004 -4172 0
4008 -4172 0
-4004 -4008 4172 0
4137 4172 -4185 0
-4137 -4172 -4185 0
-4137 4172 4185 0
4137 -4172 4185 0
4137 -4186 0
4172 -4186 0
-4137 -4172 4186 0
4136 4171 -4188 0
-4136 -4171 -4188 0
-4136 4171 4188 0
4136 -4171 4188 0
4188 4186 -4184 0
-4188 -4186 -4184 0
-4188 4186 4184 0
4188 -4186 4184 0
-4136 -4171 4187 0
-4171 -4186 4187 0
-4136 -4186 4187 0
4136 4171 -4187 0
4171 4186 -4187 0
4136 4186 -4187 0
4135 4170 -4190 0
-4135 -4170 -4190 0
-4135 4170 4190 0
4135 -4170 4190 0
4190 4187 -4183 0
-4190 -4187 -4183 0
-4190 4187 4183 0
4190 -4187 4183 0
-4135 -4170 4189 0
-4170 -4187 4189 0
-4135 -4187 4189 0
4135 4170 -4189 0
4170 4187 -4189 0
4135 4187 -4189 0
4134 4169 -4192 0
-4134 -4169 -4192 0
-4134 4169 4192 0
4134 -4169 4192 0
4192 4189 -4182 0
-4192 -4189 -4182 0
-4192 4189 4182 0
4192 -4189 4182 0
-4134 -4169 4191 0
-4169 -4189 4191 0
-4134 -4189 4191 0
4134 4169 -4191 0
4169 4189 -4191 0
4134 4189 -4191 0
4133 4168 -4194 0
-4133 -4168 -4194 0
-4133 4168 4194 0
4133 -4168 4194 0
4194 4191 -4181 0
-4194 -4191 -4181 0
-4194 4191 4181 0
4194 -4191 4181 0
-4133 -4168 4193 0
-4168 -4191 4193 0
-4133 -4191 4193 0
4133 4168 -4193 0
4168 4191 -4193 0
4133 4191 -4193 0
4132 4167 -4196 0
-4132 -4167 -4196 0
-4132 4167 4196 0
4132 -4167 4196 0
4196 4193 -4180 0
-4196 -4193 -4180 0
-4196 4193 4180 0
4196 -4193 4180 0
-4132 -4167 4195 0
-4167 -4193 4195 0
-4132 -4193 4195 0
4132 4167 -4195 0
4167 4193 -4195 0
4132 4193 -4195 0
4131 4166 -4198 0
-4131 -4166 -4198 0
-4131 4166 4198 0
4131 -4166 4198 0
4198 4195 -4179 0
-4198 -4195 -4179 0
-4198 4195 4179 0
4198 -4195 4179 0
-4131 -4166 4197 0
-4166 -4195 4197 0
-4131 -4195 4197 0
4131 4166 -4197 0
4166 4195 -4197 0
4131 4195 -4197 0
4130 4165 -4200 0
-4130 -4165 -4200 0
-4130 4165 4200 0
4130 -4165 4200 0
4200 4197 -4178 0
-4200 -4197 -4178 0
-4200 4197 4178 0
4200 -4197 4178 0
-4130 -4165 4199 0
-4165 -4197 4199 0
-4130 -4197 4199 0
4130 4165 -4199 0
4165 4197 -4199 0
4130 4197 -4199 0
4129 4164 -4202 0
-4129 -4164 -4202 0
-4129 4164 4202 0
4129 -4164 4202 0
4202 4199 -4177 0
-4202 -4199 -4177 0
-4202 4199 4177 0
4202 -4199 4177 0
-4129 -4164 4201 0
-4164 -4199 4201 0
-4129 -4199 4201 0
4129 4164 -4201 0
4164 4199 -4201 0
4129 4199 -4201 0
4128 4163 -4204 0
-4128 -4163 -4204 0
-4128 4163 4204 0
4128 -4163 4204 0
4204 4201 -4176 0
-4204 -4201 -4176 0
-4204 4201 4176 0
4204 -4201 4176 0
-4128 -4163 4203 0
-4163 -4201 4203 0
-4128 -4201 4203 0
4128 4163 -4203 0
4163 4201 -4203 0
4128 4201 -4203 0
4127 4162 -4206 0
-4127 -4162 -4206 0
-4127 4162 4206 0
4127 -4162 4206 0
4206 4203 -4175 0
-4206 -4203 -4175 0
-4206 4203 4175 0
4206 -4203 4175 0
-4127 -4162 4205 0
-4162 -4203 4205 0
-4127 -4203 4205 0
4127 4162 -4205 0
4162 4203 -4205 0
4127 4203 -4205 0
4126 4161 -4207 0
-4126 -4161 -4207 0
-4126 4161 4207 0
4126 -4161 4207 0
4207 4205 -4174 0
-4207 -4205 -4174 0
-4207 4205 4174 0
4207 -4205 4174 0
-4126 -4161 4173 0
-4161 -4205 4173 0
-4126 -4205 4173 0
4126 4161 -4173 0
4161 4205 -4173 0
4126 4205 -4173 0
4003 -4208 0
3997 -4208 0
-4003 -3997 4208 0
4003 -4209 0
3998 -4209 0
-4003 -3998 4209 0
4003 -4210 0
3999 -4210 0
-4003 -3999 4210 0
4003 -4211 0
4000 -4211 0
-4003 -4000 4211 0
4003 -4212 0
4001 -4212 0
-4003 -4001 4212 0
4003 -4213 0
4002 -4213 0
-4003 -4002 4213 0
4003 -4214 0
4003 -4214 0
-4003 -4003 4214 0
4003 -4215 0
4004 -4215 0
-4003 -4004 4215 0
4003 -4216 0
4005 -4216 0
-4003 -4005 4216 0
4003 -4217 0
4006 -4217 0
-4003 -4006 4217 0
4003 -4218 0
4007 -4218 0
-4003 -4007 4218 0
4003 -4219 0
4008 -4219 0
-4003 -4008 4219 0
4184 4219 -4232 0
-4184 -4219 -4232 0
-4184 4219 4232 0
4184 -4219 4232 0
4184 -4233 0
4219 -4233 0
-4184 -4219 4233 0
4183 4218 -4235 0
-4183 -4218 -4235 0
-4183 4218 4235 0
4183 -4218 4235 0
4235 4233 -4231 0
-4235 -4233 -4231 0
-4235 4233 4231 0
4235 -4233 4231 0
-4183 -4218 4234 0
-4218 -4233 4234 0
-4183 -4233 4234 0
4183 4218 -4234 0
4218 4233 -4234 0
4183 4233 -4234 0
4182 4217 -4237 0
-4182 -4217 -4237 0
-4182 4217 4237 0
4182 -4217 4237 0
4237 4234 -4230 0
-4237 -4234 -4230 0
-4237 4234 4230 0
4237 -4234 4230 0
-4182 -4217 4236 0
-4217 -4234 4236 0
-4182 -4234 4236 0
4182 4217 -4236 0
4217 4234 -4236 0
4182 4234 -4236 0
4181 4216 -4239 0
-4181 -4216 -4239 0
-4181 4216 4239 0
4181 -4216 4239 0
4239 4236 -4229 0
-4239 -4236 -4229 0
-4239 4236 4229 0
4239 -4236 4229 0
-4181 -4216 4238 0
-4216 -4236 4238 0
-4181 -4236 4238 0
4181 4216 -4238 0
4216 4236 -4238 0
4181 4236 -4238 0
4180 4215 -4241 0
-4180 -4215 -4241 0
-4180 4215 4241 0
4180 -4215 4241 0
4241 4238 -4228 0
-4241 -4238 -4228 0
-4241 4238 4228 0
4241 -4238 4228 0
-4180 -4215 4240 0
-4215 -4238 4240 0
-4180 -4238 4240 0
4180 4215 -4240 0
4215 4238 -4240 0
4180 4238 -4240 0
4179 4214 -4243 0
-4179 -4214 -4243 0
-4179 4214 4243 0
4179 -4214 4243 0
4243 4240 -4227 0
-4243 -4240 -4227 0
-4243 4240 4227 0
4243 -4240 4227 0
-4179 -4214 4242 0
-4214 -4240 4242 0
-4179 -4240 4242 0
4179 4214 -4242 0
4214 4240 -4242 0
4179 4240 -4242 0
4178 4213 -4245 0
-4178 -4213 -4245 0
-4178 4213 4245 0
4178 -4213 4245 0
4245 4242 -4226 0
-4245 -4242 -4226 0
-4245 4242 4226 0
4245 -4242 4226 0
-4178 -4213 4244 0
-4213 -4242 4244 0
-4178 -4242 4244 0
4178 4213 -4244 0
4213 4242 -4244 0
4178 4242 -4244 0
4177 4212 -4247 0
-4177 -4212 -4247 0
-4177 4212 4247 0
4177 -4212 4247 0
4247 4244 -4225 0
-4247 -4244 -4225 0
-4247 4244 4225 0
4247 -4244 4225 0
-4177 -4212 4246 0
-4212 -4244 4246 0
-4177 -4244 4246 0
4177 4212 -4246 0
4212 4244 -4246 0
4177 4244 -4246 0
4176 4211 -4249 0
-4176 -4211 -4249 0
-4176 4211 4249 0
4176 -4211 4249 0
4249 4246 -4224 0
-4249 -4246 -4224 0
-4249 4246 4224 0
4249 -4246 4224 0
-4176 -4211 4248 0
-4211 -4246 4248 0
-4176 -4246 4248 0
4176 4211 -4248 0
4211 4246 -4248 0
4176 4246 -4248 0
4175 4210 -4251 0
-4175 -4210 -4251 0
-4175 4210 4251 0
4175 -4210 4251 0
4251 4248 -4223 0
-4251 -4248 -4223 0
-4251 4248 4223 0
4251 -4248 4223 0
-4175 -4210 4250 0
-4210 -4248 4250 0
-4175 -4248 4250 0
4175 4210 -4250 0
4210 4248 -4250 0
4175 4248 -4250 0
4174 4209 -4253 0
-4174 -4209 -4253 0
-4174 4209 4253 0
4174 -4209 4253 0
4253 4250 -4222 0
-4253 -4250 -4222 0
-4253 4250 4222 0
4253 -4250 4222 0
-4174 -4209 4252 0
-4209 -4250 4252 0
-4174 -4250 4252 0
4174 4209 -4252 0
4209 4250 -4252 0
4174 4250 -4252 0
4173 4208 -4254 0
-4173 -4208 -4254 0
-4173 4208 4254 0
4173 -4208 4254 0
4254 4252 -4221 0
-4254 -4252 -4221 0
-4254 4252 4221 0
4254 -4252 4221 0
-4173 -4208 4220 0
-4208 -4252 4220 0
-4173 -4252 4220 0
4173 4208 -4220 0
4208 4252 -4220 0
4173 4252 -4220 0
4002 -4255 0
3997 -4255 0
-4002 -3997 4255 0
4002 -4256 0
3998 -4256 0
-4002 -3998 4256 0
4002 -4257 0
3999 -4257 0
-4002 -3999 4257 0
4002 -4258 0
4000 -4258 0
-4002 -4000 4258 0
4002 -4259 0
4001 -4259 0
-4002 -4001 4259 0
4002 -4260 0
4002 -4260 0
-4002 -4002 4260 0
4002 -4261 0
4003 -4261 0
-4002 -4003 4261 0
4002 -4262 0
4004 -4262 0
-4002 -4004 4262 0
4002 -4263 0
4005 -4263 0
-4002 -4005 4263 0
4002 -4264 0
4006 -4264 0
-4002 -4006 4264 0
4002 -4265 0
4007 -4265 0
-4002 -4007 4265 0
4002 -4266 0
4008 -4266 0
-4002 -4008 4266 0
4231 4266 -4279 0
-4231 -4266 -4279 0
-4231 4266 4279 0
4231 -4266 4279 0
4231 -4280 0
4266 -4280 0
-4231 -4266 4280 0
4230 4265 -4282 0
-4230 -4265 -4282 0
-4230 4265 4282 0
4230 -4265 4282 0
4282 4280 -4278 0
-4282 -4280 -4278 0
-4282 4280 4278 0
4282 -4280 4278 0
-4230 -4265 4281 0
-4265 -4280 4281 0
-4230 -4280 4281 0
4230 4265 -4281 0
4265 4280 -4281 0
4230 4280 -4281 0
4229 4264 -4284 0
-4229 -4264 -4284 0
-4229 4264 4284 0
4229 -4264 4284 0
4284 4281 -4277 0
-4284 -4281 -4277 0
-4284 4281 4277 0
4284 -4281 4277 0
-4229 -4264 4283 0
-4264 -4281 4283 0
-4229 -4281 4283 0
4229 4264 -4283 0
4264 4281 -4283 0
4229 4281 -4283 0
4228 4263 -4286 0
-4228 -4263 -4286 0
-4228 4263 4286 0
4228 -4263 4286 0
4286 4283 -4276 0
-4286 -4283 -4276 0
-4286 4283 4276 0
4286 -4283 4276 0
-4228 -4263 4285 0
-4263 -4283 4285 0
-4228 -4283 4285 0
4228 4263 -4285 0
4263 4283 -4285 0
4228 4283 -4285 0
4227 4262 -4288 0
-4227 -4262 -4288 0
-4227 4262 4288 0
4227 -4262 4288 0
4288 4285 -4275 0
-4288 -4285 -4275 0
-4288 4285 4275 0
4288 -4285 4275 0
-4227 -4262 4287 0
-4262 -4285 4287 0
-4227 -4285 4287 0
4227 4262 -4287 0
4262 4285 -4287 0
4227 4285 -4287 0
4226 4261 -4290 0
-4226 -4261 -4290 0
-4226 4261 4290 0
4226 -4261 4290 0
4290 4287 -4274 0
-4290 -4287 -4274 0
-4290 4287 4274 0
4290 -4287 4274 0
-4226 -4261 4289 0
-4261 -4287 4289 0
-4226 -4287 4289 0
4226 4261 -4289 0
4261 4287 -4289 0
4226 4287 -4289 0
4225 4260 -4292 0
-4225 -4260 -4292 0
-4225 4260 4292 0
4225 -4260 4292 0
4292 4289 -4273 0
-4292 -4289 -4273 0
-4292 4289 4273 0
4292 -4289 4273 0
-4225 -4260 4291 0
-4260 -4289 4291 0
-4225 -4289 4291 0
4225 4260 -4291 0
4260 4289 -4291 0
4225 4289 -4291 0
4224 4259 -4294 0
-4224 -4259 -4294 0
-4224 4259 4294 0
4224 -4259 4294 0
4294 4291 -4272 0
-4294 -4291 -4272 0
-4294 4291 4272 0
4294 -4291 4272 0
-4224 -4259 4293 0
-4259 -4291 4293 0
-4224 -4291 4293 0
4224 4259 -4293 0
4259 4291 -4293 0
4224 4291 -4293 0
4223 4258 -4296 0
-4223 -4258 -4296 0
-4223 4258 4296 0
4223 -4258 4296 0
4296 4293 -4271 0
-4296 -4293 -4271 0
-4296 4293 4271 0
4296 -4293 4271 0
-4223 -4258 4295 0
-4258 -4293 4295 0
-4223 -4293 4295 0
4223 4258 -4295 0
4258 4293 -4295 0
4223 4293 -4295 0
4222 4257 -4298 0
-4222 -4257 -4298 0
-4222 4257 4298 0
4222 -4257 4298 0
4298 4295 -4270 0
-4298 -4295 -4270 0
-4298 4295 4270 0
4298 -4295 4270 0
-4222 -4257 4297 0
-4257 -4295 4297 0
-4222 -4295 4297 0
4222 4257 -4297 0
4257 4295 -4297 0
4222 4295 -4297 0
4221 4256 -4300 0
-4221 -4256 -4300 0
-4221 4256 4300 0
4221 -4256 4300 0
4300 4297 -4269 0
-4300 -4297 -4269 0
-4300 4297 4269 0
4300 -4297 4269 0
-4221 -4256 4299 0
-4256 -4297 4299 0
-4221 -4297 4299 0
4221 4256 -4299 0
4256 4297 -4299 0
4221 4297 -4299 0
4220 4255 -4301 0
-4220 -4255 -4301 0
-4220 4255 4301 0
4220 -4255 4301 0
4301 4299 -4268 0
-4301 -4299 -4268 0
-4301 4299 4268 0
4301 -4299 4268 0
-4220 -4255 4267 0
-4255 -4299 4267 0
-4220 -4299 4267 0
4220 4255 -4267 0
4255 4299 -4267 0
4220 4299 -4267 0
4001 -4302 0
3997 -4302 0
-4001 -3997 4302 0
4001 -4303 0
3998 -4303 0
-4001 -3998 4303 0
4001 -4304 0
3999 -4304 0
-4001 -3999 4304 0
4001 -4305 0
4000 -4305 0
-4001 -4000 4305 0
4001 -4306 0
4001 -4306 0
-4001 -4001 4306 0
4001 -4307 0
4002 -4307 0
-4001 -4002 4307 0
4001 -4308 0
4003 -4308 0
-4001 -4003 4308 0
4001 -4309 0
4004 -4309 0
-4001 -4004 4309 0
4001 -4310 0
4005 -4310 0
-4001 -4005 4310 0
4001 -4311 0
4006 -4311 0
-4001 -4006 4311 0
4001 -4312 0
4007 -4312 0
-4001 -4007 4312 0
4001 -4313 0
4008 -4313 0
-4001 -4008 4313 0
4278 4313 -4326 0
-4278 -4313 -4326 0
-4278 4313 4326 0
4278 -4313 4326 0
4278 -4327 0
4313 -4327 0
-4278 -4313 4327 0
4277 4312 -4329 0
-4277 -4312 -4329 0
-4277 4312 4329 0
4277 -4312 4329 0
4329 4327 -4325 0
-4329 -4327 -4325 0
-4329 4327 4325 0
4329 -4327 4325 0
-4277 -4312 4328 0
-4312 -4327 4328 0
-4277 -4327 4328 0
4277 4312 -4328 0
4312 4327 -4328 0
4277 4327 -4328 0
4276 4311 -4331 0
-4276 -4311 -4331 0
-4276 4311 4331 0
4276 -4311 4331 0
4331 4328 -4324 0
-4331 -4328 -4324 0
-4331 4328 4324 0
4331 -4328 4324 0
-4276 -4311 4330 0
-4311 -4328 4330 0
-4276 -4328 4330 0
4276 4311 -4330 0
4311 4328 -4330 0
4276 4328 -4330 0
4275 4310 -4333 0
-4275 -4310 -4333 0
-4275 4310 4333 0
4275 -4310 4333 0
4333 4330 -4323 0
-4333 -4330 -4323 0
-4333 4330 4323 0
4333 -4330 4323 0
-4275 -4310 4332 0
-4310 -4330 4332 0
-4275 -4330 4332 0
4275 4310 -4332 0
4310 4330 -4332 0
4275 4330 -4332 0
4274 4309 -4335 0
-4274 -4309 -4335 0
-4274 4309 4335 0
4274 -4309 4335 0
4335 4332 -4322 0
-4335 -4332 -4322 0
-4335 4332 4322 0
4335 -4332 4322 0
-4274 -4309 4334 0
-4309 -4332 4334 0
-4274 -4332 4334 0
4274 4309 -4334 0
4309 4332 -4334 0
4274 4332 -4334 0
4273 4308 -4337 0
-4273 -4308 -4337 0
-4273 4308 4337 0
4273 -4308 4337 0
4337 4334 -4321 0
-4337 -4334 -4321 0
-4337 4334 4321 0
4337 -4334 4321 0
-4273 -4308 4336 0
-4308 -4334 4336 0
-4273 -4334 4336 0
4273 4308 -4336 0
4308 4334 -4336 0
4273 4334 -4336 0
4272 4307 -4339 0
-4272 -4307 -4339 0
-4272 4307 4339 0
4272 -4307 4339 0
4339 4336 -4320 0
-4339 -4336 -4320 0
-4339 4336 4320 0
4339 -4336 4320 0
-4272 -4307 4338 0
-4307 -4336 4338 0
-4272 -4336 4338 0
4272 4307 -4338 0
4307 4336 -4338 0
4272 4336 -4338 0
4271 4306 -4341 0
-4271 -4306 -4341 0
-4271 4306 4341 0
4271 -4306 4341 0
4341 4338 -4319 0
-4341 -4338 -4319 0
-4341 4338 4319 0
4341 -4338 4319 0
-4271 -4306 4340 0
-4306 -4338 4340 0
-4271 -4338 4340 0
4271 4306 -4340 0
4306 4338 -4340 0
4271 4338 -4340 0
4270 4305 -4343 0
-4270 -4305 -4343 0
-4270 4305 4343 0
4270 -4305 4343 0
4343 4340 -4318 0
-4343 -4340 -4318 0
-4343 4340 4318 0
4343 -4340 4318 0
-4270 -4305 4342 0
-4305 -4340 4342 0
-4270 -4340 4342 0
4270 4305 -4342 0
4305 4340 -4342 0
4270 4340 -4342 0
4269 4304 -4345 0
-4269 -4304 -4345 0
-4269 4304 4345 0
4269 -4304 4345 0
4345 4342 -4317 0
-4345 -4342 -4317 0
-4345 4342 4317 0
4345 -4342 4317 0
-4269 -4304 4344 0
-4304 -4342 4344 0
-4269 -4342 4344 0
4269 4304 -4344 0
4304 4342 -4344 0
4269 4342 -4344 0
4268 4303 -4347 0
-4268 -4303 -4347 0
-4268 4303 4347 0
4268 -4303 4347 0
4347 4344 -4316 0
-4347 -4344 -4316 0
-4347 4344 4316 0
4347 -4344 4316 0
-4268 -4303 4346 0
-4303 -4344 4346 0
-4268 -4344 4346 0
4268 4303 -4346 0
4303 4344 -4346 0
4268 4344 -4346 0
4267 4302 -4348 0
-4267 -4302 -4348 0
-4267 4302 4348 0
4267 -4302 4348 0
4348 4346 -4315 0
-4348 -4346 -4315 0
-4348 4346 4315 0
4348 -4346 4315 0
-4267 -4302 4314 0
-4302 -4346 4314 0
-4267 -4346 4314 0
4267 4302 -4314 0
4302 4346 -4314 0
4267 4346 -4314 0
4000 -4349 0
3997 -4349 0
-4000 -3997 4349 0
4000 -4350 0
3998 -4350 0
-4000 -3998 4350 0
4000 -4351 0
3999 -4351 0
-4000 -3999 4351 0
4000 -4352 0
4000 -4352 0
-4000 -4000 4352 0
4000 -4353 0
4001 -4353 0
-4000 -4001 4353 0
4000 -4354 0
4002 -4354 0
-4000 -4002 4354 0
4000 -4355 0
4003 -4355 0
-4000 -4003 4355 0
4000 -4356 0
4004 -4356 0
-4000 -4004 4356 0
4000 -4357 0
4005 -4357 0
-4000 -4005 4357 0
4000 -4358 0
4006 -4358 0
-4000 -4006 4358 0
4000 -4359 0
4007 -4359 0
-4000 -4007 4359 0
4000 -4360 0
4008 -4360 0
-4000 -4008 4360 0
4325 4360 -4373 0
-4325 -4360 -4373 0
-4325 4360 4373 0
4325 -4360 4373 0
4325 -4374 0
4360 -4374 0
-4325 -4360 4374 0
4324 4359 -4376 0
-4324 -4359 -4376 0
-4324 4359 4376 0
4324 -4359 4376 0
4376 4374 -4372 0
-4376 -4374 -4372 0
-4376 4374 4372 0
4376 -4374 4372 0
-4324 -4359 4375 0
-4359 -4374 4375 0
-4324 -4374 4375 0
4324 4359 -4375 0
4359 4374 -4375 0
4324 4374 -4375 0
4323 4358 -4378 0
-4323 -4358 -4378 0
-4323 4358 4378 0
4323 -4358 4378 0
4378 4375 -4371 0
-4378 -4375 -4371 0
-4378 4375 4371 0
4378 -4375 4371 0
-4323 -4358 4377 0
-4358 -4375 4377 0
-4323 -4375 4377 0
4323 4358 -4377 0
4358 4375 -4377 0
4323 4375 -4377 0
4322 4357 -4380 0
-4322 -4357 -4380 0
-4322 4357 4380 0
4322 -4357 4380 0
4380 4377 -4370 0
-4380 -4377 -4370 0
-4380 4377 4370 0
4380 -4377 4370 0
-4322 -4357 4379 0
-4357 -4377 4379 0
-4322 -4377 4379 0
4322 4357 -4379 0
4357 4377 -4379 0
4322 4377 -4379 0
4321 4356 -4382 0
-4321 -4356 -4382 0
-4321 4356 4382 0
4321 -4356 4382 0
4382 4379 -4369 0
-4382 -4379 -4369 0
-4382 4379 4369 0
4382 -4379 4369 0
-4321 -4356 4381 0
-4356 -4379 4381 0
-4321 -4379 4381 0
4321 4356 -4381 0
4356 4379 -4381 0
4321 4379 -4381 0
4320 4355 -4384 0
-4320 -4355 -4384 0
-4320 4355 4384 0
4320 -4355 4384 0
4384 4381 -4368 0
-4384 -4381 -4368 0
-4384 4381 4368 0
4384 -4381 4368 0
-4320 -4355 4383 0
-4355 -4381 4383 0
-4320 -4381 4383 0
4320 4355 -4383 0
4355 4381 -4383 0
4320 4381 -4383 0
4319 4354 -4386 0
-4319 -4354 -4386 0
-4319 4354 4386 0
4319 -4354 4386 0
4386 4383 -4367 0
-4386 -4383 -4367 0
-4386 4383 4367 0
4386 -4383 4367 0
-4319 -4354 4385 0
-4354 -4383 4385 0
-4319 -4383 4385 0
4319 4354 -4385 0
4354 4383 -4385 0
4319 4383 -4385 0
4318 4353 -4388 0
-4318 -4353 -4388 0
-4318 4353 4388 0
4318 -4353 4388 0
4388 4385 -4366 0
-4388 -4385 -4366 0
-4388 4385 4366 0
4388 -4385 4366 0
-4318 -4353 4387 0
-4353 -4385 4387 0
-4318 -4385 4387 0
4318 4353 -4387 0
4353 4385 -4387 0
4318 4385 -4387 0
4317 4352 -4390 0
-4317 -4352 -4390 0
-4317 4352 4390 0
4317 -4352 4390 0
4390 4387 -4365 0
-4390 -4387 -4365 0
-4390 4387 4365 0
4390 -4387 4365 0
-4317 -4352 4389 0
-4352 -4387 4389 0
-4317 -4387 4389 0
4317 4352 -4389 0
4352 4387 -4389 0
4317 4387 -4389 0
4316 4351 -4392 0
-4316 -4351 -4392 0
-4316 4351 4392 0
4316 -4351 4392 0
4392 4389 -4364 0
-4392 -4389 -4364 0
-4392 4389 4364 0
4392 -4389 4364 0
-4316 -4351 4391 0
-4351 -4389 4391 0
-4316 -4389 4391 0
4316 4351 -4391 0
4351 4389 -4391 0
4316 4389 -4391 0
4315 4350 -4394 0
-4315 -4350 -4394 0
-4315 4350 4394 0
4315 -4350 4394 0
4394 4391 -4363 0
-4394 -4391 -4363 0
-4394 4391 4363 0
4394 -4391 4363 0
-4315 -4350 4393 0
-4350 -4391 4393 0
-4315 -4391 4393 0
4315 4350 -4393 0
4350 4391 -4393 0
4315 4391 -4393 0
4314 4349 -4395 0
-4314 -4349 -4395 0
-4314 4349 4395 0
4314 -4349 4395 0
4395 4393 -4362 0
-4395 -4393 -4362 0
-4395 4393 4362 0
4395 -4393 4362 0
-4314 -4349 4361 0
-4349 -4393 4361 0
-4314 -4393 4361 0
4314 4349 -4361 0
4349 4393 -4361 0
4314 4393 -4361 0
3999 -4396 0
3997 -4396 0
-3999 -3997 4396 0
3999 -4397 0
3998 -4397 0
-3999 -3998 4397 0
3999 -4398 0
3999 -4398 0
-3999 -3999 4398 0
3999 -4399 0
4000 -4399 0
-3999 -4000 4399 0
3999 -4400 0
4001 -4400 0
-3999 -4001 4400 0
3999 -4401 0
4002 -4401 0
-3999 -4002 4401 0
3999 -4402 0
4003 -4402 0
-3999 -4003 4402 0
3999 -4403 0
4004 -4403 0
-3999 -4004 4403 0
3999 -4404 0
4005 -4404 0
-3999 -4005 4404 0
3999 -4405 0
4006 -4405 0
-3999 -4006 4405 0
3999 -4406 0
4007 -4406 0
-3999 -4007 4406 0
3999 -4407 0
4008 -4407 0
-3999 -4008 4407 0
4372 4407 -4420 0
-4372 -4407 -4420 0
-4372 4407 4420 0
4372 -4407 4420 0
4372 -4421 0
4407 -4421 0
-4372 -4407 4421 0
4371 4406 -4423 0
-4371 -4406 -4423 0
-4371 4406 4423 0
4371 -4406 4423 0
4423 4421 -4419 0
-4423 -4421 -4419 0
-4423 4421 4419 0
4423 -4421 4419 0
-4371 -4406 4422 0
-4406 -4421 4422 0
-4371 -4421 4422 0
4371 4406 -4422 0
4406 4421 -4422 0
4371 4421 -4422 0
4370 4405 -4425 0
-4370 -4405 -4425 0
-4370 4405 4425 0
4370 -4405 4425 0
4425 4422 -4418 0
-4425 -4422 -4418 0
-4425 4422 4418 0
4425 -4422 4418 0
-4370 -4405 4424 0
-4405 -4422 4424 0
-4370 -4422 4424 0
4370 4405 -4424 0
4405 4422 -4424 0
4370 4422 -4424 0
4369 4404 -4427 0
-4369 -4404 -4427 0
-4369 4404 4427 0
4369 -4404 4427 0
4427 4424 -4417 0
-4427 -4424 -4417 0
-4427 4424 4417 0
4427 -4424 4417 0
-4369 -4404 4426 0
-4404 -4424 4426 0
-4369 -4424 4426 0
4369 4404 -4426 0
4404 4424 -4426 0
4369 4424 -4426 0
4368 4403 -4429 0
-4368 -4403 -4429 0
-4368 4403 4429 0
4368 -4403 4429 0
4429 4426 -4416 0
-4429 -4426 -4416 0
-4429 4426 4416 0
4429 -4426 4416 0
-4368 -4403 4428 0
-4403 -4426 4428 0
-4368 -4426 4428 0
4368 4403 -4428 0
4403 4426 -4428 0
4368 4426 -4428 0
4367 4402 -4431 0
-4367 -4402 -4431 0
-4367 4402 4431 0
4367 -4402 4431 0
4431 4428 -4415 0
-4431 -4428 -4415 0
-4431 4428 4415 0
4431 -4428 4415 0
-4367 -4402 4430 0
-4402 -4428 4430 0
-4367 -4428 4430 0
4367 4402 -4430 0
4402 4428 -4430 0
4367 4428 -4430 0
4366 4401 -4433 0
-4366 -4401 -4433 0
-4366 4401 4433 0
4366 -4401 4433 0
4433 4430 -4414 0
-4433 -4430 -4414 0
-4433 4430 4414 0
4433 -4430 4414 0
-4366 -4401 4432 0
-4401 -4430 4432 0
-4366 -4430 4432 0
4366 4401 -4432 0
4401 4430 -4432 0
4366 4430 -4432 0
4365 4400 -4435 0
-4365 -4400 -4435 0
-4365 4400 4435 0
4365 -4400 4435 0
4435 4432 -4413 0
-4435 -4432 -4413 0
-4435 4432 4413 0
4435 -4432 4413 0
-4365 -4400 4434 0
-4400 -4432 4434 0
-4365 -4432 4434 0
4365 4400 -4434 0
4400 4432 -4434 0
4365 4432 -4434 0
4364 4399 -4437 0
-4364 -4399 -4437 0
-4364 4399 4437 0
4364 -4399 4437 0
4437 4434 -4412 0
-4437 -4434 -4412 0
-4437 4434 4412 0
4437 -4434 4412 0
-4364 -4399 4436 0
-4399 -4434 4436 0
-4364 -4434 4436 0
4364 4399 -4436 0
4399 4434 -4436 0
4364 4434 -4436 0
4363 4398 -4439 0
-4363 -4398 -4439 0
-4363 4398 4439 0
4363 -4398 4439 0
4439 4436 -4411 0
-4439 -4436 -4411 0
-4439 4436 4411 0
4439 -4436 4411 0
-4363 -4398 4438 0
-4398 -4436 4438 0
-4363 -4436 4438 0
4363 4398 -4438 0
4398 4436 -4438 0
4363 4436 -4438 0
4362 4397 -4441 0
-4362 -4397 -4441 0
-4362 4397 4441 0
4362 -4397 4441 0
4441 4438 -4410 0
-4441 -4438 -4410 0
-4441 4438 4410 0
4441 -4438 4410 0
-4362 -4397 4440 0
-4397 -4438 4440 0
-4362 -4438 4440 0
4362 4397 -4440 0
4397 4438 -4440 0
4362 4438 -4440 0
4361 4396 -4442 0
-4361 -4396 -4442 0
-4361 4396 4442 0
4361 -4396 4442 0
4442 4440 -4409 0
-4442 -4440 -4409 0
-4442 4440 4409 0
4442 -4440 4409 0
-4361 -4396 4408 0
-4396 -4440 4408 0
-4361 -4440 4408 0
4361 4396 -4408 0
4396 4440 -4408 0
4361 4440 -4408 0
3998 -4443 0
3997 -4443 0
-3998 -3997 4443 0
3998 -4444 0
3998 -4444 0
-3998 -3998 4444 0
3998 -4445 0
3999 -4445 0
-3998 -3999 4445 0
3998 -4446 0
4000 -4446 0
-3998 -4000 4446 0
3998 -4447 0
4001 -4447 0
-3998 -4001 4447 0
3998 -4448 0
4002 -4448 0
-3998 -4002 4448 0
3998 -4449 0
4003 -4449 0
-3998 -4003 4449 0
3998 -4450 0
4004 -4450 0
-3998 -4004 4450 0
3998 -4451 0
4005 -4451 0
-3998 -4005 4451 0
3998 -4452 0
4006 -4452 0
-3998 -4006 4452 0
3998 -4453 0
4007 -4453 0
-3998 -4007 4453 0
3998 -4454 0
4008 -4454 0
-3998 -4008 4454 0
4419 4454 -4467 0
-4419 -4454 -4467 0
-4419 4454 4467 0
4419 -4454 4467 0
4419 -4468 0
4454 -4468 0
-4419 -4454 4468 0
4418 4453 -4470 0
-4418 -4453 -4470 0
-4418 4453 4470 0
4418 -4453 4470 0
4470 4468 -4466 0
-4470 -4468 -4466 0
-4470 4468 4466 0
4470 -4468 4466 0
-4418 -4453 4469 0
-4453 -4468 4469 0
-4418 -4468 4469 0
4418 4453 -4469 0
4453 4468 -4469 0
4418 4468 -4469 0
4417 4452 -4472 0
-4417 -4452 -4472 0
-4417 4452 4472 0
4417 -4452 4472 0
4472 4469 -4465 0
-4472 -4469 -4465 0
-4472 4469 4465 0
4472 -4469 4465 0
-4417 -4452 4471 0
-4452 -4469 4471 0
-4417 -4469 4471 0
4417 4452 -4471 0
4452 4469 -4471 0
4417 4469 -4471 0
4416 4451 -4474 0
-4416 -4451 -4474 0
-4416 4451 4474 0
4416 -4451 4474 0
4474 4471 -4464 0
-4474 -4471 -4464 0
-4474 4471 4464 0
4474 -4471 4464 0
-4416 -4451 4473 0
-4451 -4471 4473 0
-4416 -4471 4473 0
4416 4451 -4473 0
4451 4471 -4473 0
4416 4471 -4473 0
4415 4450 -4476 0
-4415 -4450 -4476 0
-4415 4450 4476 0
4415 -4450 4476 0
4476 4473 -4463 0
-4476 -4473 -4463 0
-4476 4473 4463 0
4476 -4473 4463 0
-4415 -4450 4475 0
-4450 -4473 4475 0
-4415 -4473 4475 0
4415 4450 -4475 0
4450 4473 -4475 0
4415 4473 -4475 0
4414 4449 -4478 0
-4414 -4449 -4478 0
-4414 4449 4478 0
4414 -4449 4478 0
4478 4475 -4462 0
-4478 -4475 -4462 0
-4478 4475 4462 0
4478 -4475 4462 0
-4414 -4449 4477 0
-4449 -4475 4477 0
-4414 -4475 4477 0
4414 4449 -4477 0
4449 4475 -4477 0
4414 4475 -4477 0
4413 4448 -4480 0
-4413 -4448 -4480 0
-4413 4448 4480 0
4413 -4448 4480 0
4480 4477 -4461 0
-4480 -4477 -4461 0
-4480 4477 4461 0
4480 -4477 4461 0
-4413 -4448 4479 0
-4448 -4477 4479 0
-4413 -4477 4479 0
4413 4448 -4479 0
4448 4477 -4479 0
4413 4477 -4479 0
4412 4447 -4482 0
-4412 -4447 -4482 0
-4412 4447 4482 0
4412 -4447 4482 0
4482 4479 -4460 0
-4482 -4479 -4460 0
-4482 4479 4460 0
4482 -4479 4460 0
-4412 -4447 4481 0
-4447 -4479 4481 0
-4412 -4479 4481 0
4412 4447 -4481 0
4447 4479 -4481 0
4412 4479 -4481 0
4411 4446 -4484 0
-4411 -4446 -4484 0
-4411 4446 4484 0
4411 -4446 4484 0
4484 4481 -4459 0
-4484 -4481 -4459 0
-4484 4481 4459 0
4484 -4481 4459 0
-4411 -4446 4483 0
-4446 -4481 4483 0
-4411 -4481 4483 0
4411 4446 -4483 0
4446 4481 -4483 0
4411 4481 -4483 0
4410 4445 -4486 0
-4410 -4445 -4486 0
-4410 4445 4486 0
4410 -4445 4486 0
4486 4483 -4458 0
-4486 -4483 -4458 0
-4486 4483 4458 0
4486 -4483 4458 0
-4410 -4445 4485 0
-4445 -4483 4485 0
-4410 -4483 4485 0
4410 4445 -4485 0
4445 4483 -4485 0
4410 4483 -4485 0
4409 4444 -4488 0
-4409 -4444 -4488 0
-4409 4444 4488 0
4409 -4444 4488 0
4488 4485 -4457 0
-4488 -4485 -4457 0
-4488 4485 4457 0
4488 -4485 4457 0
-4409 -4444 4487 0
-4444 -4485 4487 0
-4409 -4485 4487 0
4409 4444 -4487 0
4444 4485 -4487 0
4409 4485 -4487 0
4408 4443 -4489 0
-4408 -4443 -4489 0
-4408 4443 4489 0
4408 -4443 4489 0
4489 4487 -4456 0
-4489 -4487 -4456 0
-4489 4487 4456 0
4489 -4487 4456 0
-4408 -4443 4455 0
-4443 -4487 4455 0
-4408 -4487 4455 0
4408 4443 -4455 0
4443 4487 -4455 0
4408 4487 -4455 0
3997 -4490 0
3997 -4490 0
-3997 -3997 4490 0
3997 -4491 0
3998 -4491 0
-3997 -3998 4491 0
3997 -4492 0
3999 -4492 0
-3997 -3999 4492 0
3997 -4493 0
4000 -4493 0
-3997 -4000 4493 0
3997 -4494 0
4001 -4494 0
-3997 -4001 4494 0
3997 -4495 0
4002 -4495 0
-3997 -4002 4495 0
3997 -4496 0
4003 -4496 0
-3997 -4003 4496 0
3997 -4497 0
4004 -4497 0
-3997 -4004 4497 0
3997 -4498 0
4005 -4498 0
-3997 -4005 4498 0
3997 -4499 0
4006 -4499 0
-3997 -4006 4499 0
3997 -4500 0
4007 -4500 0
-3997 -4007 4500 0
3997 -4501 0
4008 -4501 0
-3997 -4008 4501 0
4466 4501 -4514 0
-4466 -4501 -4514 0
-4466 4501 4514 0
4466 -4501 4514 0
4466 -4515 0
4501 -4515 0
-4466 -4501 4515 0
4465 4500 -4517 0
-4465 -4500 -4517 0
-4465 4500 4517 0
4465 -4500 4517 0
4517 4515 -4513 0
-4517 -4515 -4513 0
-4517 4515 4513 0
4517 -4515 4513 0
-4465 -4500 4516 0
-4500 -4515 4516 0
-4465 -4515 4516 0
4465 4500 -4516 0
4500 4515 -4516 0
4465 4515 -4516 0
4464 4499 -4519 0
-4464 -4499 -4519 0
-4464 4499 4519 0
4464 -4499 4519 0
4519 4516 -4512 0
-4519 -4516 -4512 0
-4519 4516 4512 0
4519 -4516 4512 0
-4464 -4499 4518 0
-4499 -4516 4518 0
-4464 -4516 4518 0
4464 4499 -4518 0
4499 4516 -4518 0
4464 4516 -4518 0
4463 4498 -4521 0
-4463 -4498 -4521 0
-4463 4498 4521 0
4463 -4498 4521 0
4521 4518 -4511 0
-4521 -4518 -4511 0
-4521 4518 4511 0
4521 -4518 4511 0
-4463 -4498 4520 0
-4498 -4518 4520 0
-4463 -4518 4520 0
4463 4498 -4520 0
4498 4518 -4520 0
4463 4518 -4520 0
4462 4497 -4523 0
-4462 -4497 -4523 0
-4462 4497 4523 0
4462 -4497 4523 0
4523 4520 -4510 0
-4523 -4520 -4510 0
-4523 4520 4510 0
4523 -4520 4510 0
-4462 -4497 4522 0
-4497 -4520 4522 0
-4462 -4520 4522 0
4462 4497 -4522 0
4497 4520 -4522 0
4462 4520 -4522 0
4461 4496 -4525 0
-4461 -4496 -4525 0
-4461 4496 4525 0
4461 -4496 4525 0
4525 4522 -4509 0
-4525 -4522 -4509 0
-4525 4522 4509 0
4525 -4522 4509 0
-4461 -4496 4524 0
-4496 -4522 4524 0
-4461 -4522 4524 0
4461 4496 -4524 0
4496 4522 -4524 0
4461 4522 -4524 0
4460 4495 -4527 0
-4460 -4495 -4527 0
-4460 4495 4527 0
4460 -4495 4527 0
4527 4524 -4508 0
-4527 -4524 -4508 0
-4527 4524 4508 0
4527 -4524 4508 0
-4460 -4495 4526 0
-4495 -4524 4526 0
-4460 -4524 4526 0
4460 4495 -4526 0
4495 4524 -4526 0
4460 4524 -4526 0
4459 4494 -4529 0
-4459 -4494 -4529 0
-4459 4494 4529 0
4459 -4494 4529 0
4529 4526 -4507 0
-4529 -4526 -4507 0
-4529 4526 4507 0
4529 -4526 4507 0
-4459 -4494 4528 0
-4494 -4526 4528 0
-4459 -4526 4528 0
4459 4494 -4528 0
4494 4526 -4528 0
4459 4526 -4528 0
4458 4493 -4531 0
-4458 -4493 -4531 0
-4458 4493 4531 0
4458 -4493 4531 0
4531 4528 -4506 0
-4531 -4528 -4506 0
-4531 4528 4506 0
4531 -4528 4506 0
-4458 -4493 4530 0
-4493 -4528 4530 0
-4458 -4528 4530 0
4458 4493 -4530 0
4493 4528 -4530 0
4458 4528 -4530 0
4457 4492 -4533 0
-4457 -4492 -4533 0
-4457 4492 4533 0
4457 -4492 4533 0
4533 4530 -4505 0
-4533 -4530 -4505 0
-4533 4530 4505 0
4533 -4530 4505 0
-4457 -4492 4532 0
-4492 -4530 4532 0
-4457 -4530 4532 0
4457 4492 -4532 0
4492 4530 -4532 0
4457 4530 -4532 0
4456 4491 -4535 0
-4456 -4491 -4535 0
-4456 4491 4535 0
4456 -4491 4535 0
4535 4532 -4504 0
-4535 -4532 -4504 0
-4535 4532 4504 0
4535 -4532 4504 0
-4456 -4491 4534 0
-4491 -4532 4534 0
-4456 -4532 4534 0
4456 4491 -4534 0
4491 4532 -4534 0
4456 4532 -4534 0
4455 4490 -4536 0
-4455 -4490 -4536 0
-4455 4490 4536 0
4455 -4490 4536 0
4536 4534 -4503 0
-4536 -4534 -4503 0
-4536 4534 4503 0
4536 -4534 4503 0
-4455 -4490 4502 0
-4490 -4534 4502 0
-4455 -4534 4502 0
4455 4490 -4502 0
4490 4534 -4502 0
4455 4534 -4502 0
4502 -169 0
-4502 169 0
4503 -170 0
-4503 170 0
4504 -171 0
-4504 171 0
4505 -172 0
-4505 172 0
4506 -173 0
-4506 173 0
4507 -174 0
-4507 174 0
4508 -175 0
-4508 175 0
4509 -176 0
-4509 176 0
4510 -177 0
-4510 177 0
4511 -178 0
-4511 178 0
4512 -179 0
-4512 179 0
4513 -180 0
-4513 180 0
4514 -181 0
-4514 181 0
4467 -182 0
-4467 182 0
4420 -183 0
-4420 183 0
4373 -184 0
-4373 184 0
4326 -185 0
-4326 185 0
4279 -186 0
-4279 186 0
4232 -187 0
-4232 187 0
4185 -188 0
-4185 188 0
4138 -189 0
-4138 189 0
4091 -190 0
-4091 190 0
4045 -191 0
-4045 191 0
4020 -192 0
-4020 192 0
193 194 195 196 197 198 199 200 201 202 203 204 205 206 207 208 209 210 211 212 213 214 215 216 0
4548 -4549 0
4537 -4549 0
-4548 -4537 4549 0
4548 -4550 0
4538 -4550 0
-4548 -4538 4550 0
4548 -4551 0
4539 -4551 0
-4548 -4539 4551 0
4548 -4552 0
4540 -4552 0
-4548 -4540 4552 0
4548 -4553 0
4541 -4553 0
-4548 -4541 4553 0
4548 -4554 0
4542 -4554 0
-4548 -4542 4554 0
4548 -4555 0
4543 -4555 0
-4548 -4543 4555 0
4548 -4556 0
4544 -4556 0
-4548 -4544 4556 0
4548 -4557 0
4545 -4557 0
-4548 -4545 4557 0
4548 -4558 0
4546 -4558 0
-4548 -4546 4558 0
4548 -4559 0
4547 -4559 0
-4548 -4547 4559 0
4548 -4560 0
4548 -4560 0
-4548 -4548 4560 0
4547 -4561 0
4537 -4561 0
-4547 -4537 4561 0
4547 -4562 0
4538 -4562 0
-4547 -4538 4562 0
4547 -4563 0
4539 -4563 0
-4547 -4539 4563 0
4547 -4564 0
4540 -4564 0
-4547 -4540 4564 0
4547 -4565 0
4541 -4565 0
-4547 -4541 4565 0
4547 -4566 0
4542 -4566 0
-4547 -4542 4566 0
4547 -4567 0
4543 -4567 0
-4547 -4543 4567 0
4547 -4568 0
4544 -4568 0
-4547 -4544 4568 0
4547 -4569 0
4545 -4569 0
-4547 -4545 4569 0
4547 -4570 0
4546 -4570 0
-4547 -4546 4570 0
4547 -4571 0
4547 -4571 0
-4547 -4547 4571 0
4547 -4572 0
4548 -4572 0
-4547 -4548 4572 0
4559 4572 -4585 0
-4559 -4572 -4585 0
-4559 4572 4585 0
4559 -4572 4585 0
4559 -4586 0
4572 -4586 0
-4559 -4572 4586 0
4558 4571 -4588 0
-4558 -4571 -4588 0
-4558 4571 4588 0
4558 -4571 4588 0
4588 4586 -4584 0
-4588 -4586 -4584 0
-4588 4586 4584 0
4588 -4586 4584 0
-4558 -4571 4587 0
-4571 -4586 4587 0
-4558 -4586 4587 0
4558 4571 -4587 0
4571 4586 -4587 0
4558 4586 -4587 0
4557 4570 -4590 0
-4557 -4570 -4590 0
-4557 4570 4590 0
4557 -4570 4590 0
4590 4587 -4583 0
-4590 -4587 -4583 0
-4590 4587 4583 0
4590 -4587 4583 0
-4557 -4570 4589 0
-4570 -4587 4589 0
-4557 -4587 4589 0
4557 4570 -4589 0
4570 4587 -4589 0
4557 4587 -4589 0
4556 4569 -4592 0
-4556 -4569 -4592 0
-4556 4569 4592 0
4556 -4569 4592 0
4592 4589 -4582 0
-4592 -4589 -4582 0
-4592 4589 4582 0
4592 -4589 4582 0
-4556 -4569 4591 0
-4569 -4589 4591 0
-4556 -4589 4591 0
4556 4569 -4591 0
4569 4589 -4591 0
4556 4589 -4591 0
4555 4568 -4594 0
-4555 -4568 -4594 0
-4555 4568 4594 0
4555 -4568 4594 0
4594 4591 -4581 0
-4594 -4591 -4581 0
-4594 4591 4581 0
4594 -4591 4581 0
-4555 -4568 4593 0
-4568 -4591 4593 0
-4555 -4591 4593 0
4555 4568 -4593 0
4568 4591 -4593 0
4555 4591 -4593 0
4554 4567 -4596 0
-4554 -4567 -4596 0
-4554 4567 4596 0
4554 -4567 4596 0
4596 4593 -4580 0
-4596 -4593 -4580 0
-4596 4593 4580 0
4596 -4593 4580 0
-4554 -4567 4595 0
-4567 -4593 4595 0
-4554 -4593 4595 0
4554 4567 -4595 0
4567 4593 -4595 0
4554 4593 -4595 0
4553 4566 -4598 0
-4553 -4566 -4598 0
-4553 4566 4598 0
4553 -4566 4598 0
4598 4595 -4579 0
-4598 -4595 -4579 0
-4598 4595 4579 0
4598 -4595 4579 0
-4553 -4566 4597 0
-4566 -4595 4597 0
-4553 -4595 4597 0
4553 4566 -4597 0
4566 4595 -4597 0
4553 4595 -4597 0
4552 4565 -4600 0
-4552 -4565 -4600 0
-4552 4565 4600 0
4552 -4565 4600 0
4600 4597 -4578 0
-4600 -4597 -4578 0
-4600 4597 4578 0
4600 -4597 4578 0
-4552 -4565 4599 0
-4565 -4597 4599 0
-4552 -4597 4599 0
4552 4565 -4599 0
4565 4597 -4599 0
4552 4597 -4599 0
4551 4564 -4602 0
-4551 -4564 -4602 0
-4551 4564 4602 0
4551 -4564 4602 0
4602 4599 -4577 0
-4602 -4599 -4577 0
-4602 4599 4577 0
4602 -4599 4577 0
-4551 -4564 4601 0
-4564 -4599 4601 0
-4551 -4599 4601 0
4551 4564 -4601 0
4564 4599 -4601 0
4551 4599 -4601 0
4550 4563 -4604 0
-4550 -4563 -4604 0
-4550 4563 4604 0
4550 -4563 4604 0
4604 4601 -4576 0
-4604 -4601 -4576 0
-4604 4601 4576 0
4604 -4601 4576 0
-4550 -4563 4603 0
-4563 -4601 4603 0
-4550 -4601 4603 0
4550 4563 -4603 0
4563 4601 -4603 0
4550 4601 -4603 0
4549 4562 -4606 0
-4549 -4562 -4606 0
-4549 4562 4606 0
4549 -4562 4606 0
4606 4603 -4575 0
-4606 -4603 -4575 0
-4606 4603 4575 0
4606 -4603 4575 0
-4549 -4562 4605 0
-4562 -4603 4605 0
-4549 -4603 4605 0
4549 4562 -4605 0
4562 4603 -4605 0
4549 4603 -4605 0
4561 4605 -4574 0
-4561 -4605 -4574 0
-4561 4605 4574 0
4561 -4605 4574 0
4561 -4573 0
4605 -4573 0
-4561 -4605 4573 0
4546 -4607 0
4537 -4607 0
-4546 -4537 4607 0
4546 -4608 0
4538 -4608 0
-4546 -4538 4608 0
4546 -4609 0
4539 -4609 0
-4546 -4539 4609 0
4546 -4610 0
4540 -4610 0
-4546 -4540 4610 0
4546 -4611 0
4541 -4611 0
-4546 -4541 4611 0
4546 -4612 0
4542 -4612 0
-4546 -4542 4612 0
4546 -4613 0
4543 -4613 0
-4546 -4543 4613 0
4546 -4614 0
4544 -4614 0
-4546 -4544 4614 0
4546 -4615 0
4545 -4615 0
-4546 -4545 4615 0
4546 -4616 0
4546 -4616 0
-4546 -4546 4616 0
4546 -4617 0
4547 -4617 0
-4546 -4547 4617 0
4546 -4618 0
4548 -4618 0
-4546 -4548 4618 0
4584 4618 -4631 0
-4584 -4618 -4631 0
-4584 4618 4631 0
4584 -4618 4631 0
4584 -4632 0
4618 -4632 0
-4584 -4618 4632 0
4583 4617 -4634 0
-4583 -4617 -4634 0
-4583 4617 4634 0
4583 -4617 4634 0
4634 4632 -4630 0
-4634 -4632 -4630 0
-4634 4632 4630 0
4634 -4632 4630 0
-4583 -4617 4633 0
-4617 -4632 4633 0
-4583 -4632 4633 0
4583 4617 -4633 0
4617 4632 -4633 0
4583 4632 -4633 0
4582 4616 -4636 0
-4582 -4616 -4636 0
-4582 4616 4636 0
4582 -4616 4636 0
4636 4633 -4629 0
-4636 -4633 -4629 0
-4636 4633 4629 0
4636 -4633 4629 0
-4582 -4616 4635 0
-4616 -4633 4635 0
-4582 -4633 4635 0
4582 4616 -4635 0
4616 4633 -4635 0
4582 4633 -4635 0
4581 4615 -4638 0
-4581 -4615 -4638 0
-4581 4615 4638 0
4581 -4615 4638 0
4638 4635 -4628 0
-4638 -4635 -4628 0
-4638 4635 4628 0
4638 -4635 4628 0
-4581 -4615 4637 0
-4615 -4635 4637 0
-4581 -4635 4637 0
4581 4615 -4637 0
4615 4635 -4637 0
4581 4635 -4637 0
4580 4614 -4640 0
-4580 -4614 -4640 0
-4580 4614 4640 0
4580 -4614 4640 0
4640 4637 -4627 0
-4640 -4637 -4627 0
-4640 4637 4627 0
4640 -4637 4627 0
-4580 -4614 4639 0
-4614 -4637 4639 0
-4580 -4637 4639 0
4580 4614 -4639 0
4614 4637 -4639 0
4580 4637 -4639 0
4579 4613 -4642 0
-4579 -4613 -4642 0
-4579 4613 4642 0
4579 -4613 4642 0
4642 4639 -4626 0
-4642 -4639 -4626 0
-4642 4639 4626 0
4642 -4639 4626 0
-4579 -4613 4641 0
-4613 -4639 4641 0
-4579 -4639 4641 0
4579 4613 -4641 0
4613 4639 -4641 0
4579 4639 -4641 0
4578 4612 -4644 0
-4578 -4612 -4644 0
-4578 4612 4644 0
4578 -4612 4644 0
4644 4641 -4625 0
-4644 -4641 -4625 0
-4644 4641 4625 0
4644 -4641 4625 0
-4578 -4612 4643 0
-4612 -4641 4643 0
-4578 -4641 4643 0
4578 4612 -4643 0
4612 4641 -4643 0
4578 4641 -4643 0
4577 4611 -4646 0
-4577 -4611 -4646 0
-4577 4611 4646 0
4577 -4611 4646 0
4646 4643 -4624 0
-4646 -4643 -4624 0
-4646 4643 4624 0
4646 -4643 4624 0
-4577 -4611 4645 0
-4611 -4643 4645 0
-4577 -4643 4645 0
4577 4611 -4645 0
4611 4643 -4645 0
4577 4643 -4645 0
4576 4610 -4648 0
-4576 -4610 -4648 0
-4576 4610 4648 0
4576 -4610 4648 0
4648 4645 -4623 0
-4648 -4645 -4623 0
-4648 4645 4623 0
4648 -4645 4623 0
-4576 -4610 4647 0
-4610 -4645 4647 0
-4576 -4645 4647 0
4576 4610 -4647 0
4610 4645 -4647 0
4576 4645 -4647 0
4575 4609 -4650 0
-4575 -4609 -4650 0
-4575 4609 4650 0
4575 -4609 4650 0
4650 4647 -4622 0
-4650 -4647 -4622 0
-4650 4647 4622 0
4650 -4647 4622 0
-4575 -4609 4649 0
-4609 -4647 4649 0
-4575 -4647 4649 0
4575 4609 -4649 0
4609 4647 -4649 0
4575 4647 -4649 0
4574 4608 -4652 0
-4574 -4608 -4652 0
-4574 4608 4652 0
4574 -4608 4652 0
4652 4649 -4621 0
-4652 -4649 -4621 0
-4652 4649 4621 0
4652 -4649 4621 0
-4574 -4608 4651 0
-4608 -4649 4651 0
-4574 -4649 4651 0
4574 4608 -4651 0
4608 4649 -4651 0
4574 4649 -4651 0
4573 4607 -4653 0
-4573 -4607 -4653 0
-4573 4607 4653 0
4573 -4607 4653 0
4653 4651 -4620 0
-4653 -4651 -4620 0
-4653 4651 4620 0
4653 -4651 4620 0
-4573 -4607 4619 0
-4607 -4651 4619 0
-4573 -4651 4619 0
4573 4607 -4619 0
4607 4651 -4619 0
4573 4651 -4619 0
4545 -4654 0
4537 -4654 0
-4545 -4537 4654 0
4545 -4655 0
4538 -4655 0
-4545 -4538 4655 0
4545 -4656 0
4539 -4656 0
-4545 -4539 4656 0
4545 -4657 0
4540 -4657 0
-4545 -4540 4657 0
4545 -4658 0
4541 -4658 0
-4545 -4541 4658 0
4545 -4659 0
4542 -4659 0
-4545 -4542 4659 0
4545 -4660 0
4543 -4660 0
-4545 -4543 4660 0
4545 -4661 0
4544 -4661 0
-4545 -4544 4661 0
4545 -4662 0
4545 -4662 0
-4545 -4545 4662 0
4545 -4663 0
4546 -4663 0
-4545 -4546 4663 0
4545 -4664 0
4547 -4664 0
-4545 -4547 4664 0
4545 -4665 0
4548 -4665 0
-4545 -4548 4665 0
4630 4665 -4678 0
-4630 -4665 -4678 0
-4630 4665 4678 0
4630 -4665 4678 0
4630 -4679 0
4665 -4679 0
-4630 -4665 4679 0
4629 4664 -4681 0
-4629 -4664 -4681 0
-4629 4664 4681 0
4629 -4664 4681 0
4681 4679 -4677 0
-4681 -4679 -4677 0
-4681 4679 4677 0
4681 -4679 4677 0
-4629 -4664 4680 0
-4664 -4679 4680 0
-4629 -4679 4680 0
4629 4664 -4680 0
4664 4679 -4680 0
4629 4679 -4680 0
4628 4663 -4683 0
-4628 -4663 -4683 0
-4628 4663 4683 0
4628 -4663 4683 0
4683 4680 -4676 0
-4683 -4680 -4676 0
-4683 4680 4676 0
4683 -4680 4676 0
-4628 -4663 4682 0
-4663 -4680 4682 0
-4628 -4680 4682 0
4628 4663 -4682 0
4663 4680 -4682 0
4628 4680 -4682 0
4627 4662 -4685 0
-4627 -4662 -4685 0
-4627 4662 4685 0
4627 -4662 4685 0
4685 4682 -4675 0
-4685 -4682 -4675 0
-4685 4682 4675 0
4685 -4682 4675 0
-4627 -4662 4684 0
-4662 -4682 4684 0
-4627 -4682 4684 0
4627 4662 -4684 0
4662 4682 -4684 0
4627 4682 -4684 0
4626 4661 -4687 0
-4626 -4661 -4687 0
-4626 4661 4687 0
4626 -4661 4687 0
4687 4684 -4674 0
-4687 -4684 -4674 0
-4687 4684 4674 0
4687 -4684 4674 0
-4626 -4661 4686 0
-4661 -4684 4686 0
-4626 -4684 4686 0
4626 4661 -4686 0
4661 4684 -4686 0
4626 4684 -4686 0
4625 4660 -4689 0
-4625 -4660 -4689 0
-4625 4660 4689 0
4625 -4660 4689 0
4689 4686 -4673 0
-4689 -4686 -4673 0
-4689 4686 4673 0
4689 -4686 4673 0
-4625 -4660 4688 0
-4660 -4686 4688 0
-4625 -4686 4688 0
4625 4660 -4688 0
4660 4686 -4688 0
4625 4686 -4688 0
4624 4659 -4691 0
-4624 -4659 -4691 0
-4624 4659 4691 0
4624 -4659 4691 0
4691 4688 -4672 0
-4691 -4688 -4672 0
-4691 4688 4672 0
4691 -4688 4672 0
-4624 -4659 4690 0
-4659 -4688 4690 0
-4624 -4688 4690 0
4624 4659 -4690 0
4659 4688 -4690 0
4624 4688 -4690 0
4623 4658 -4693 0
-4623 -4658 -4693 0
-4623 4658 4693 0
4623 -4658 4693 0
4693 4690 -4671 0
-4693 -4690 -4671 0
-4693 4690 4671 0
4693 -4690 4671 0
-4623 -4658 4692 0
-4658 -4690 4692 0
-4623 -4690 4692 0
4623 4658 -4692 0
4658 4690 -4692 0
4623 4690 -4692 0
4622 4657 -4695 0
-4622 -4657 -4695 0
-4622 4657 4695 0
4622 -4657 4695 0
4695 4692 -4670 0
-4695 -4692 -4670 0
-4695 4692 4670 0
4695 -4692 4670 0
-4622 -4657 4694 0
-4657 -4692 4694 0
-4622 -4692 4694 0
4622 4657 -4694 0
4657 4692 -4694 0
4622 4692 -4694 0
4621 4656 -4697 0
-4621 -4656 -4697 0
-4621 4656 4697 0
4621 -4656 4697 0
4697 4694 -4669 0
-4697 -4694 -4669 0
-4697 4694 4669 0
4697 -4694 4669 0
-4621 -4656 4696 0
-4656 -4694 4696 0
-4621 -4694 4696 0
4621 4656 -4696 0
4656 4694 -4696 0
4621 4694 -4696 0
4620 4655 -4699 0
-4620 -4655 -4699 0
-4620 4655 4699 0
4620 -4655 4699 0
4699 4696 -4668 0
-4699 -4696 -4668 0
-4699 4696 4668 0
4699 -4696 4668 0
-4620 -4655 4698 0
-4655 -4696 4698 0
-4620 -4696 4698 0
4620 4655 -4698 0
4655 4696 -4698 0
4620 4696 -4698 0
4619 4654 -4700 0
-4619 -4654 -4700 0
-4619 4654 4700 0
4619 -4654 4700 0
4700 4698 -4667 0
-4700 -4698 -4667 0
-4700 4698 4667 0
4700 -4698 4667 0
-4619 -4654 4666 0
-4654 -4698 4666 0
-4619 -4698 4666 0
4619 4654 -4666 0
4654 4698 -4666 0
4619 4698 -4666 0
4544 -4701 0
4537 -4701 0
-4544 -4537 4701 0
4544 -4702 0
4538 -4702 0
-4544 -4538 4702 0
4544 -4703 0
4539 -4703 0
-4544 -4539 4703 0
4544 -4704 0
4540 -4704 0
-4544 -4540 4704 0
4544 -4705 0
4541 -4705 0
-4544 -4541 4705 0
4544 -4706 0
4542 -4706 0
-4544 -4542 4706 0
4544 -4707 0
4543 -4707 0
-4544 -4543 4707 0
4544 -4708 0
4544 -4708 0
-4544 -4544 4708 0
4544 -4709 0
4545 -4709 0
-4544 -4545 4709 0
4544 -4710 0
4546 -4710 0
-4544 -4546 4710 0
4544 -4711 0
4547 -4711 0
-4544 -4547 4711 0
4544 -4712 0
4548 -4712 0
-4544 -4548 4712 0
4677 4712 -4725 0
-4677 -4712 -4725 0
-4677 4712 4725 0
4677 -4712 4725 0
4677 -4726 0
4712 -4726 0
-4677 -4712 4726 0
4676 4711 -4728 0
-4676 -4711 -4728 0
-4676 4711 4728 0
4676 -4711 4728 0
4728 4726 -4724 0
-4728 -4726 -4724 0
-4728 4726 4724 0
4728 -4726 4724 0
-4676 -4711 4727 0
-4711 -4726 4727 0
-4676 -4726 4727 0
4676 4711 -4727 0
4711 4726 -4727 0
4676 4726 -4727 0
4675 4710 -4730 0
-4675 -4710 -4730 0
-4675 4710 4730 0
4675 -4710 4730 0
4730 4727 -4723 0
-4730 -4727 -4723 0
-4730 4727 4723 0
4730 -4727 4723 0
-4675 -4710 4729 0
-4710 -4727 4729 0
-4675 -4727 4729 0
4675 4710 -4729 0
4710 4727 -4729 0
4675 4727 -4729 0
4674 4709 -4732 0
-4674 -4709 -4732 0
-4674 4709 4732 0
4674 -4709 4732 0
4732 4729 -4722 0
-4732 -4729 -4722 0
-4732 4729 4722 0
4732 -4729 4722 0
-4674 -4709 4731 0
-4709 -4729 4731 0
-4674 -4729 4731 0
4674 4709 -4731 0
4709 4729 -4731 0
4674 4729 -4731 0
4673 4708 -4734 0
-4673 -4708 -4734 0
-4673 4708 4734 0
4673 -4708 4734 0
4734 4731 -4721 0
-4734 -4731 -4721 0
-4734 4731 4721 0
4734 -4731 4721 0
-4673 -4708 4733 0
-4708 -4731 4733 0
-4673 -4731 4733 0
4673 4708 -4733 0
4708 4731 -4733 0
4673 4731 -4733 0
4672 4707 -4736 0
-4672 -4707 -4736 0
-4672 4707 4736 0
4672 -4707 4736 0
4736 4733 -4720 0
-4736 -4733 -4720 0
-4736 4733 4720 0
4736 -4733 4720 0
-4672 -4707 4735 0
-4707 -4733 4735 0
-4672 -4733 4735 0
4672 4707 -4735 0
4707 4733 -4735 0
4672 4733 -4735 0
4671 4706 -4738 0
-4671 -4706 -4738 0
-4671 4706 4738 0
4671 -4706 4738 0
4738 4735 -4719 0
-4738 -4735 -4719 0
-4738 4735 4719 0
4738 -4735 4719 0
-4671 -4706 4737 0
-4706 -4735 4737 0
-4671 -4735 4737 0
4671 4706 -4737 0
4706 4735 -4737 0
4671 4735 -4737 0
4670 4705 -4740 0
-4670 -4705 -4740 0
-4670 4705 4740 0
4670 -4705 4740 0
4740 4737 -4718 0
-4740 -4737 -4718 0
-4740 4737 4718 0
4740 -4737 4718 0
-4670 -4705 4739 0
-4705 -4737 4739 0
-4670 -4737 4739 0
4670 4705 -4739 0
4705 4737 -4739 0
4670 4737 -4739 0
4669 4704 -4742 0
-4669 -4704 -4742 0
-4669 4704 4742 0
4669 -4704 4742 0
4742 4739 -4717 0
-4742 -4739 -4717 0
-4742 4739 4717 0
4742 -4739 4717 0
-4669 -4704 4741 0
-4704 -4739 4741 0
-4669 -4739 4741 0
4669 4704 -4741 0
4704 4739 -4741 0
4669 4739 -4741 0
4668 4703 -4744 0
-4668 -4703 -4744 0
-4668 4703 4744 0
4668 -4703 4744 0
4744 4741 -4716 0
-4744 -4741 -4716 0
-4744 4741 4716 0
4744 -4741 4716 0
-4668 -4703 4743 0
-4703 -4741 4743 0
-4668 -4741 4743 0
4668 4703 -4743 0
4703 4741 -4743 0
4668 4741 -4743 0
4667 4702 -4746 0
-4667 -4702 -4746 0
-4667 4702 4746 0
4667 -4702 4746 0
4746 4743 -4715 0
-4746 -4743 -4715 0
-4746 4743 4715 0
4746 -4743 4715 0
-4667 -4702 4745 0
-4702 -4743 4745 0
-4667 -4743 4745 0
4667 4702 -4745 0
4702 4743 -4745 0
4667 4743 -4745 0
4666 4701 -4747 0
-4666 -4701 -4747 0
-4666 4701 4747 0
4666 -4701 4747 0
4747 4745 -4714 0
-4747 -4745 -4714 0
-4747 4745 4714 0
4747 -4745 4714 0
-4666 -4701 4713 0
-4701 -4745 4713 0
-4666 -4745 4713 0
4666 4701 -4713 0
4701 4745 -4713 0
4666 4745 -4713 0
4543 -4748 0
4537 -4748 0
-4543 -4537 4748 0
4543 -4749 0
4538 -4749 0
-4543 -4538 4749 0
4543 -4750 0
4539 -4750 0
-4543 -4539 4750 0
4543 -4751 0
4540 -4751 0
-4543 -4540 4751 0
4543 -4752 0
4541 -4752 0
-4543 -4541 4752 0
4543 -4753 0
4542 -4753 0
-4543 -4542 4753 0
4543 -4754 0
4543 -4754 0
-4543 -4543 4754 0
4543 -4755 0
4544 -4755 0
-4543 -4544 4755 0
4543 -4756 0
4545 -4756 0
-4543 -4545 4756 0
4543 -4757 0
4546 -4757 0
-4543 -4546 4757 0
4543 -4758 0
4547 -4758 0
-4543 -4547 4758 0
4543 -4759 0
4548 -4759 0
-4543 -4548 4759 0
4724 4759 -4772 0
-4724 -4759 -4772 0
-4724 4759 4772 0
4724 -4759 4772 0
4724 -4773 0
4759 -4773 0
-4724 -4759 4773 0
4723 4758 -4775 0
-4723 -4758 -4775 0
-4723 4758 4775 0
4723 -4758 4775 0
4775 4773 -4771 0
-4775 -4773 -4771 0
-4775 4773 4771 0
4775 -4773 4771 0
-4723 -4758 4774 0
-4758 -4773 4774 0
-4723 -4773 4774 0
4723 4758 -4774 0
4758 4773 -4774 0
4723 4773 -4774 0
4722 4757 -4777 0
-4722 -4757 -4777 0
-4722 4757 4777 0
4722 -4757 4777 0
4777 4774 -4770 0
-4777 -4774 -4770 0
-4777 4774 4770 0
4777 -4774 4770 0
-4722 -4757 4776 0
-4757 -4774 4776 0
-4722 -4774 4776 0
4722 4757 -4776 0
4757 4774 -4776 0
4722 4774 -4776 0
4721 4756 -4779 0
-4721 -4756 -4779 0
-4721 4756 4779 0
4721 -4756 4779 0
4779 4776 -4769 0
-4779 -4776 -4769 0
-4779 4776 4769 0
4779 -4776 4769 0
-4721 -4756 4778 0
-4756 -4776 4778 0
-4721 -4776 4778 0
4721 4756 -4778 0
4756 4776 -4778 0
4721 4776 -4778 0
4720 4755 -4781 0
-4720 -4755 -4781 0
-4720 4755 4781 0
4720 -4755 4781 0
4781 4778 -4768 0
-4781 -4778 -4768 0
-4781 4778 4768 0
4781 -4778 4768 0
-4720 -4755 4780 0
-4755 -4778 4780 0
-4720 -4778 4780 0
4720 4755 -4780 0
4755 4778 -4780 0
4720 4778 -4780 0
4719 4754 -4783 0
-4719 -4754 -4783 0
-4719 4754 4783 0
4719 -4754 4783 0
4783 4780 -4767 0
-4783 -4780 -4767 0
-4783 4780 4767 0
4783 -4780 4767 0
-4719 -4754 4782 0
-4754 -4780 4782 0
-4719 -4780 4782 0
4719 4754 -4782 0
4754 4780 -4782 0
4719 4780 -4782 0
4718 4753 -4785 0
-4718 -4753 -4785 0
-4718 4753 4785 0
4718 -4753 4785 0
4785 4782 -4766 0
-4785 -4782 -4766 0
-4785 4782 4766 0
4785 -4782 4766 0
-4718 -4753 4784 0
-4753 -4782 4784 0
-4718 -4782 4784 0
4718 4753 -4784 0
4753 4782 -4784 0
4718 4782 -4784 0
4717 4752 -4787 0
-4717 -4752 -4787 0
-4717 4752 4787 0
4717 -4752 4787 0
4787 4784 -4765 0
-4787 -4784 -4765 0
-4787 4784 4765 0
4787 -4784 4765 0
-4717 -4752 4786 0
-4752 -4784 4786 0
-4717 -4784 4786 0
4717 4752 -4786 0
4752 4784 -4786 0
4717 4784 -4786 0
4716 4751 -4789 0
-4716 -4751 -4789 0
-4716 4751 4789 0
4716 -4751 4789 0
4789 4786 -4764 0
-4789 -4786 -4764 0
-4789 4786 4764 0
4789 -4786 4764 0
-4716 -4751 4788 0
-4751 -4786 4788 0
-4716 -4786 4788 0
4716 4751 -4788 0
4751 4786 -4788 0
4716 4786 -4788 0
4715 4750 -4791 0
-4715 -4750 -4791 0
-4715 4750 4791 0
4715 -4750 4791 0
4791 4788 -4763 0
-4791 -4788 -4763 0
-4791 4788 4763 0
4791 -4788 4763 0
-4715 -4750 4790 0
-4750 -4788 4790 0
-4715 -4788 4790 0
4715 4750 -4790 0
4750 4788 -4790 0
4715 4788 -4790 0
4714 4749 -4793 0
-4714 -4749 -4793 0
-4714 4749 4793 0
4714 -4749 4793 0
4793 4790 -4762 0
-4793 -4790 -4762 0
-4793 4790 4762 0
4793 -4790 4762 0
-4714 -4749 4792 0
-4749 -4790 4792 0
-4714 -4790 4792 0
4714 4749 -4792 0
4749 4790 -4792 0
4714 4790 -4792 0
4713 4748 -4794 0
-4713 -4748 -4794 0
-4713 4748 4794 0
4713 -4748 4794 0
4794 4792 -4761 0
-4794 -4792 -4761 0
-4794 4792 4761 0
4794 -4792 4761 0
-4713 -4748 4760 0
-4748 -4792 4760 0
-4713 -4792 4760 0
4713 4748 -4760 0
4748 4792 -4760 0
4713 4792 -4760 0
4542 -4795 0
4537 -4795 0
-4542 -4537 4795 0
4542 -4796 0
4538 -4796 0
-4542 -4538 4796 0
4542 -4797 0
4539 -4797 0
-4542 -4539 4797 0
4542 -4798 0
4540 -4798 0
-4542 -4540 4798 0
4542 -4799 0
4541 -4799 0
-4542 -4541 4799 0
4542 -4800 0
4542 -4800 0
-4542 -4542 4800 0
4542 -4801 0
4543 -4801 0
-4542 -4543 4801 0
4542 -4802 0
4544 -4802 0
-4542 -4544 4802 0
4542 -4803 0
4545 -4803 0
-4542 -4545 4803 0
4542 -4804 0
4546 -4804 0
-4542 -4546 4804 0
4542 -4805 0
4547 -4805 0
-4542 -4547 4805 0
4542 -4806 0
4548 -4806 0
-4542 -4548 4806 0
4771 4806 -4819 0
-4771 -4806 -4819 0
-4771 4806 4819 0
4771 -4806 4819 0
4771 -4820 0
4806 -4820 0
-4771 -4806 4820 0
4770 4805 -4822 0
-4770 -4805 -4822 0
-4770 4805 4822 0
4770 -4805 4822 0
4822 4820 -4818 0
-4822 -4820 -4818 0
-4822 4820 4818 0
4822 -4820 4818 0
-4770 -4805 4821 0
-4805 -4820 4821 0
-4770 -4820 4821 0
4770 4805 -4821 0
4805 4820 -4821 0
4770 4820 -4821 0
4769 4804 -4824 0
-4769 -4804 -4824 0
-4769 4804 4824 0
4769 -4804 4824 0
4824 4821 -4817 0
-4824 -4821 -4817 0
-4824 4821 4817 0
4824 -4821 4817 0
-4769 -4804 4823 0
-4804 -4821 4823 0
-4769 -4821 4823 0
4769 4804 -4823 0
4804 4821 -4823 0
4769 4821 -4823 0
4768 4803 -4826 0
-4768 -4803 -4826 0
-4768 4803 4826 0
4768 -4803 4826 0
4826 4823 -4816 0
-4826 -4823 -4816 0
-4826 4823 4816 0
4826 -4823 4816 0
-4768 -4803 4825 0
-4803 -4823 4825 0
-4768 -4823 4825 0
4768 4803 -4825 0
4803 4823 -4825 0
4768 4823 -4825 0
4767 4802 -4828 0
-4767 -4802 -4828 0
-4767 4802 4828 0
4767 -4802 4828 0
4828 4825 -4815 0
-4828 -4825 -4815 0
-4828 4825 4815 0
4828 -4825 4815 0
-4767 -4802 4827 0
-4802 -4825 4827 0
-4767 -4825 4827 0
4767 4802 -4827 0
4802 4825 -4827 0
4767 4825 -4827 0
4766 4801 -4830 0
-4766 -4801 -4830 0
-4766 4801 4830 0
4766 -4801 4830 0
4830 4827 -4814 0
-4830 -4827 -4814 0
-4830 4827 4814 0
4830 -4827 4814 0
-4766 -4801 4829 0
-4801 -4827 4829 0
-4766 -4827 4829 0
4766 4801 -4829 0
4801 4827 -4829 0
4766 4827 -4829 0
4765 4800 -4832 0
-4765 -4800 -4832 0
-4765 4800 4832 0
4765 -4800 4832 0
4832 4829 -4813 0
-4832 -4829 -4813 0
-4832 4829 4813 0
4832 -4829 4813 0
-4765 -4800 4831 0
-4800 -4829 4831 0
-4765 -4829 4831 0
4765 4800 -4831 0
4800 4829 -4831 0
4765 4829 -4831 0
4764 4799 -4834 0
-4764 -4799 -4834 0
-4764 4799 4834 0
4764 -4799 4834 0
4834 4831 -4812 0
-4834 -4831 -4812 0
-4834 4831 4812 0
4834 -4831 4812 0
-4764 -4799 4833 0
-4799 -4831 4833 0
-4764 -4831 4833 0
4764 4799 -4833 0
4799 4831 -4833 0
4764 4831 -4833 0
4763 4798 -4836 0
-4763 -4798 -4836 0
-4763 4798 4836 0
4763 -4798 4836 0
4836 4833 -4811 0
-4836 -4833 -4811 0
-4836 4833 4811 0
4836 -4833 4811 0
-4763 -4798 4835 0
-4798 -4833 4835 0
-4763 -4833 4835 0
4763 4798 -4835 0
4798 4833 -4835 0
4763 4833 -4835 0
4762 4797 -4838 0
-4762 -4797 -4838 0
-4762 4797 4838 0
4762 -4797 4838 0
4838 4835 -4810 0
-4838 -4835 -4810 0
-4838 4835 4810 0
4838 -4835 4810 0
-4762 -4797 4837 0
-4797 -4835 4837 0
-4762 -4835 4837 0
4762 4797 -4837 0
4797 4835 -4837 0
4762 4835 -4837 0
4761 4796 -4840 0
-4761 -4796 -4840 0
-4761 4796 4840 0
4761 -4796 4840 0
4840 4837 -4809 0
-4840 -4837 -4809 0
-4840 4837 4809 0
4840 -4837 4809 0
-4761 -4796 4839 0
-4796 -4837 4839 0
-4761 -4837 4839 0
4761 4796 -4839 0
4796 4837 -4839 0
4761 4837 -4839 0
4760 4795 -4841 0
-4760 -4795 -4841 0
-4760 4795 4841 0
4760 -4795 4841 0
4841 4839 -4808 0
-4841 -4839 -4808 0
-4841 4839 4808 0
4841 -4839 4808 0
-4760 -4795 4807 0
-4795 -4839 4807 0
-4760 -4839 4807 0
4760 4795 -4807 0
4795 4839 -4807 0
4760 4839 -4807 0
4541 -4842 0
4537 -4842 0
-4541 -4537 4842 0
4541 -4843 0
4538 -4843 0
-4541 -4538 4843 0
4541 -4844 0
4539 -4844 0
-4541 -4539 4844 0
4541 -4845 0
4540 -4845 0
-4541 -4540 4845 0
4541 -4846 0
4541 -4846 0
-4541 -4541 4846 0
4541 -4847 0
4542 -4847 0
-4541 -4542 4847 0
4541 -4848 0
4543 -4848 0
-4541 -4543 4848 0
4541 -4849 0
4544 -4849 0
-4541 -4544 4849 0
4541 -4850 0
4545 -4850 0
-4541 -4545 4850 0
4541 -4851 0
4546 -4851 0
-4541 -4546 4851 0
4541 -4852 0
4547 -4852 0
-4541 -4547 4852 0
4541 -4853 0
4548 -4853 0
-4541 -4548 4853 0
4818 4853 -4866 0
-4818 -4853 -4866 0
-4818 4853 4866 0
4818 -4853 4866 0
4818 -4867 0
4853 -4867 0
-4818 -4853 4867 0
4817 4852 -4869 0
-4817 -4852 -4869 0
-4817 4852 4869 0
4817 -4852 4869 0
4869 4867 -4865 0
-4869 -4867 -4865 0
-4869 4867 4865 0
4869 -4867 4865 0
-4817 -4852 4868 0
-4852 -4867 4868 0
-4817 -4867 4868 0
4817 4852 -4868 0
4852 4867 -4868 0
4817 4867 -4868 0
4816 4851 -4871 0
-4816 -4851 -4871 0
-4816 4851 4871 0
4816 -4851 4871 0
4871 4868 -4864 0
-4871 -4868 -4864 0
-4871 4868 4864 0
4871 -4868 4864 0
-4816 -4851 4870 0
-4851 -4868 4870 0
-4816 -4868 4870 0
4816 4851 -4870 0
4851 4868 -4870 0
4816 4868 -4870 0
4815 4850 -4873 0
-4815 -4850 -4873 0
-4815 4850 4873 0
4815 -4850 4873 0
4873 4870 -4863 0
-4873 -4870 -4863 0
-4873 4870 4863 0
4873 -4870 4863 0
-4815 -4850 4872 0
-4850 -4870 4872 0
-4815 -4870 4872 0
4815 4850 -4872 0
4850 4870 -4872 0
4815 4870 -4872 0
4814 4849 -4875 0
-4814 -4849 -4875 0
-4814 4849 4875 0
4814 -4849 4875 0
4875 4872 -4862 0
-4875 -4872 -4862 0
-4875 4872 4862 0
4875 -4872 4862 0
-4814 -4849 4874 0
-4849 -4872 4874 0
-4814 -4872 4874 0
4814 4849 -4874 0
4849 4872 -4874 0
4814 4872 -4874 0
4813 4848 -4877 0
-4813 -4848 -4877 0
-4813 4848 4877 0
4813 -4848 4877 0
4877 4874 -4861 0
-4877 -4874 -4861 0
-4877 4874 4861 0
4877 -4874 4861 0
-4813 -4848 4876 0
-4848 -4874 4876 0
-4813 -4874 4876 0
4813 4848 -4876 0
4848 4874 -4876 0
4813 4874 -4876 0
4812 4847 -4879 0
-4812 -4847 -4879 0
-4812 4847 4879 0
4812 -4847 4879 0
4879 4876 -4860 0
-4879 -4876 -4860 0
-4879 4876 4860 0
4879 -4876 4860 0
-4812 -4847 4878 0
-4847 -4876 4878 0
-4812 -4876 4878 0
4812 4847 -4878 0
4847 4876 -4878 0
4812 4876 -4878 0
4811 4846 -4881 0
-4811 -4846 -4881 0
-4811 4846 4881 0
4811 -4846 4881 0
4881 4878 -4859 0
-4881 -4878 -4859 0
-4881 4878 4859 0
4881 -4878 4859 0
-4811 -4846 4880 0
-4846 -4878 4880 0
-4811 -4878 4880 0
4811 4846 -4880 0
4846 4878 -4880 0
4811 4878 -4880 0
4810 4845 -4883 0
-4810 -4845 -4883 0
-4810 4845 4883 0
4810 -4845 4883 0
4883 4880 -4858 0
-4883 -4880 -4858 0
-4883 4880 4858 0
4883 -4880 4858 0
-4810 -4845 4882 0
-4845 -4880 4882 0
-4810 -4880 4882 0
4810 4845 -4882 0
4845 4880 -4882 0
4810 4880 -4882 0
4809 4844 -4885 0
-4809 -4844 -4885 0
-4809 4844 4885 0
4809 -4844 4885 0
4885 4882 -4857 0
-4885 -4882 -4857 0
-4885 4882 4857 0
4885 -4882 4857 0
-4809 -4844 4884 0
-4844 -4882 4884 0
-4809 -4882 4884 0
4809 4844 -4884 0
4844 4882 -4884 0
4809 4882 -4884 0
4808 4843 -4887 0
-4808 -4843 -4887 0
-4808 4843 4887 0
4808 -4843 4887 0
4887 4884 -4856 0
-4887 -4884 -4856 0
-4887 4884 4856 0
4887 -4884 4856 0
-4808 -4843 4886 0
-4843 -4884 4886 0
-4808 -4884 4886 0
4808 4843 -4886 0
4843 4884 -4886 0
4808 4884 -4886 0
4807 4842 -4888 0
-4807 -4842 -4888 0
-4807 4842 4888 0
4807 -4842 4888 0
4888 4886 -4855 0
-4888 -4886 -4855 0
-4888 4886 4855 0
4888 -4886 4855 0
-4807 -4842 4854 0
-4842 -4886 4854 0
-4807 -4886 4854 0
4807 4842 -4854 0
4842 4886 -4854 0
4807 4886 -4854 0
4540 -4889 0
4537 -4889 0
-4540 -4537 4889 0
4540 -4890 0
4538 -4890 0
-4540 -4538 4890 0
4540 -4891 0
4539 -4891 0
-4540 -4539 4891 0
4540 -4892 0
4540 -4892 0
-4540 -4540 4892 0
4540 -4893 0
4541 -4893 0
-4540 -4541 4893 0
4540 -4894 0
4542 -4894 0
-4540 -4542 4894 0
4540 -4895 0
4543 -4895 0
-4540 -4543 4895 0
4540 -4896 0
4544 -4896 0
-4540 -4544 4896 0
4540 -4897 0
4545 -4897 0
-4540 -4545 4897 0
4540 -4898 0
4546 -4898 0
-4540 -4546 4898 0
4540 -4899 0
4547 -4899 0
-4540 -4547 4899 0
4540 -4900 0
4548 -4900 0
-4540 -4548 4900 0
4865 4900 -4913 0
-4865 -4900 -4913 0
-4865 4900 4913 0
4865 -4900 4913 0
4865 -4914 0
4900 -4914 0
-4865 -4900 4914 0
4864 4899 -4916 0
-4864 -4899 -4916 0
-4864 4899 4916 0
4864 -4899 4916 0
4916 4914 -4912 0
-4916 -4914 -4912 0
-4916 4914 4912 0
4916 -4914 4912 0
-4864 -4899 4915 0
-4899 -4914 4915 0
-4864 -4914 4915 0
4864 4899 -4915 0
4899 4914 -4915 0
4864 4914 -4915 0
4863 4898 -4918 0
-4863 -4898 -4918 0
-4863 4898 4918 0
4863 -4898 4918 0
4918 4915 -4911 0
-4918 -4915 -4911 0
-4918 4915 4911 0
4918 -4915 4911 0
-4863 -4898 4917 0
-4898 -4915 4917 0
-4863 -4915 4917 0
4863 4898 -4917 0
4898 4915 -4917 0
4863 4915 -4917 0
4862 4897 -4920 0
-4862 -4897 -4920 0
-4862 4897 4920 0
4862 -4897 4920 0
4920 4917 -4910 0
-4920 -4917 -4910 0
-4920 4917 4910 0
4920 -4917 4910 0
-4862 -4897 4919 0
-4897 -4917 4919 0
-4862 -4917 4919 0
4862 4897 -4919 0
4897 4917 -4919 0
4862 4917 -4919 0
4861 4896 -4922 0
-4861 -4896 -4922 0
-4861 4896 4922 0
4861 -4896 4922 0
4922 4919 -4909 0
-4922 -4919 -4909 0
-4922 4919 4909 0
4922 -4919 4909 0
-4861 -4896 4921 0
-4896 -4919 4921 0
-4861 -4919 4921 0
4861 4896 -4921 0
4896 4919 -4921 0
4861 4919 -4921 0
4860 4895 -4924 0
-4860 -4895 -4924 0
-4860 4895 4924 0
4860 -4895 4924 0
4924 4921 -4908 0
-4924 -4921 -4908 0
-4924 4921 4908 0
4924 -4921 4908 0
-4860 -4895 4923 0
-4895 -4921 4923 0
-4860 -4921 4923 0
4860 4895 -4923 0
4895 4921 -4923 0
4860 4921 -4923 0
4859 4894 -4926 0
-4859 -4894 -4926 0
-4859 4894 4926 0
4859 -4894 4926 0
4926 4923 -4907 0
-4926 -4923 -4907 0
-4926 4923 4907 0
4926 -4923 4907 0
-4859 -4894 4925 0
-4894 -4923 4925 0
-4859 -4923 4925 0
4859 4894 -4925 0
4894 4923 -4925 0
4859 4923 -4925 0
4858 4893 -4928 0
-4858 -4893 -4928 0
-4858 4893 4928 0
4858 -4893 4928 0
4928 4925 -4906 0
-4928 -4925 -4906 0
-4928 4925 4906 0
4928 -4925 4906 0
-4858 -4893 4927 0
-4893 -4925 4927 0
-4858 -4925 4927 0
4858 4893 -4927 0
4893 4925 -4927 0
4858 4925 -4927 0
4857 4892 -4930 0
-4857 -4892 -4930 0
-4857 4892 4930 0
4857 -4892 4930 0
4930 4927 -4905 0
-4930 -4927 -4905 0
-4930 4927 4905 0
4930 -4927 4905 0
-4857 -4892 4929 0
-4892 -4927 4929 0
-4857 -4927 4929 0
4857 4892 -4929 0
4892 4927 -4929 0
4857 4927 -4929 0
4856 4891 -4932 0
-4856 -4891 -4932 0
-4856 4891 4932 0
4856 -4891 4932 0
4932 4929 -4904 0
-4932 -4929 -4904 0
-4932 4929 4904 0
4932 -4929 4904 0
-4856 -4891 4931 0
-4891 -4929 4931 0
-4856 -4929 4931 0
4856 4891 -4931 0
4891 4929 -4931 0
4856 4929 -4931 0
4855 4890 -4934 0
-4855 -4890 -4934 0
-4855 4890 4934 0
4855 -4890 4934 0
4934 4931 -4903 0
-4934 -4931 -4903 0
-4934 4931 4903 0
4934 -4931 4903 0
-4855 -4890 4933 0
-4890 -4931 4933 0
-4855 -4931 4933 0
4855 4890 -4933 0
4890 4931 -4933 0
4855 4931 -4933 0
4854 4889 -4935 0
-4854 -4889 -4935 0
-4854 4889 4935 0
4854 -4889 4935 0
4935 4933 -4902 0
-4935 -4933 -4902 0
-4935 4933 4902 0
4935 -4933 4902 0
-4854 -4889 4901 0
-4889 -4933 4901 0
-4854 -4933 4901 0
4854 4889 -4901 0
4889 4933 -4901 0
4854 4933 -4901 0
4539 -4936 0
4537 -4936 0
-4539 -4537 4936 0
4539 -4937 0
4538 -4937 0
-4539 -4538 4937 0
4539 -4938 0
4539 -4938 0
-4539 -4539 4938 0
4539 -4939 0
4540 -4939 0
-4539 -4540 4939 0
4539 -4940 0
4541 -4940 0
-4539 -4541 4940 0
4539 -4941 0
4542 -4941 0
-4539 -4542 4941 0
4539 -4942 0
4543 -4942 0
-4539 -4543 4942 0
4539 -4943 0
4544 -4943 0
-4539 -4544 4943 0
4539 -4944 0
4545 -4944 0
-4539 -4545 4944 0
4539 -4945 0
4546 -4945 0
-4539 -4546 4945 0
4539 -4946 0
4547 -4946 0
-4539 -4547 4946 0
4539 -4947 0
4548 -4947 0
-4539 -4548 4947 0
4912 4947 -4960 0
-4912 -4947 -4960 0
-4912 4947 4960 0
4912 -4947 4960 0
4912 -4961 0
4947 -4961 0
-4912 -4947 4961 0
4911 4946 -4963 0
-4911 -4946 -4963 0
-4911 4946 4963 0
4911 -4946 4963 0
4963 4961 -4959 0
-4963 -4961 -4959 0
-4963 4961 4959 0
4963 -4961 4959 0
-4911 -4946 4962 0
-4946 -4961 4962 0
-4911 -4961 4962 0
4911 4946 -4962 0
4946 4961 -4962 0
4911 4961 -4962 0
4910 4945 -4965 0
-4910 -4945 -4965 0
-4910 4945 4965 0
4910 -4945 4965 0
4965 4962 -4958 0
-4965 -4962 -4958 0
-4965 4962 4958 0
4965 -4962 4958 0
-4910 -4945 4964 0
-4945 -4962 4964 0
-4910 -4962 4964 0
4910 4945 -4964 0
4945 4962 -4964 0
4910 4962 -4964 0
4909 4944 -4967 0
-4909 -4944 -4967 0
-4909 4944 4967 0
4909 -4944 4967 0
4967 4964 -4957 0
-4967 -4964 -4957 0
-4967 4964 4957 0
4967 -4964 4957 0
-4909 -4944 4966 0
-4944 -4964 4966 0
-4909 -4964 4966 0
4909 4944 -4966 0
4944 4964 -4966 0
4909 4964 -4966 0
4908 4943 -4969 0
-4908 -4943 -4969 0
-4908 4943 4969 0
4908 -4943 4969 0
4969 4966 -4956 0
-4969 -4966 -4956 0
-4969 4966 4956 0
4969 -4966 4956 0
-4908 -4943 4968 0
-4943 -4966 4968 0
-4908 -4966 4968 0
4908 4943 -4968 0
4943 4966 -4968 0
4908 4966 -4968 0
4907 4942 -4971 0
-4907 -4942 -4971 0
-4907 4942 4971 0
4907 -4942 4971 0
4971 4968 -4955 0
-4971 -4968 -4955 0
-4971 4968 4955 0
4971 -4968 4955 0
-4907 -4942 4970 0
-4942 -4968 4970 0
-4907 -4968 4970 0
4907 4942 -4970 0
4942 4968 -4970 0
4907 4968 -4970 0
4906 4941 -4973 0
-4906 -4941 -4973 0
-4906 4941 4973 0
4906 -4941 4973 0
4973 4970 -4954 0
-4973 -4970 -4954 0
-4973 4970 4954 0
4973 -4970 4954 0
-4906 -4941 4972 0
-4941 -4970 4972 0
-4906 -4970 4972 0
4906 4941 -4972 0
4941 4970 -4972 0
4906 4970 -4972 0
4905 4940 -4975 0
-4905 -4940 -4975 0
-4905 4940 4975 0
4905 -4940 4975 0
4975 4972 -4953 0
-4975 -4972 -4953 0
-4975 4972 4953 0
4975 -4972 4953 0
-4905 -4940 4974 0
-4940 -4972 4974 0
-4905 -4972 4974 0
4905 4940 -4974 0
4940 4972 -4974 0
4905 4972 -4974 0
4904 4939 -4977 0
-4904 -4939 -4977 0
-4904 4939 4977 0
4904 -4939 4977 0
4977 4974 -4952 0
-4977 -4974 -4952 0
-4977 4974 4952 0
4977 -4974 4952 0
-4904 -4939 4976 0
-4939 -4974 4976 0
-4904 -4974 4976 0
4904 4939 -4976 0
4939 4974 -4976 0
4904 4974 -4976 0
4903 4938 -4979 0
-4903 -4938 -4979 0
-4903 4938 4979 0
4903 -4938 4979 0
4979 4976 -4951 0
-4979 -4976 -4951 0
-4979 4976 4951 0
4979 -4976 4951 0
-4903 -4938 4978 0
-4938 -4976 4978 0
-4903 -4976 4978 0
4903 4938 -4978 0
4938 4976 -4978 0
4903 4976 -4978 0
4902 4937 -4981 0
-4902 -4937 -4981 0
-4902 4937 4981 0
4902 -4937 4981 0
4981 4978 -4950 0
-4981 -4978 -4950 0
-4981 4978 4950 0
4981 -4978 4950 0
-4902 -4937 4980 0
-4937 -4978 4980 0
-4902 -4978 4980 0
4902 4937 -4980 0
4937 4978 -4980 0
4902 4978 -4980 0
4901 4936 -4982 0
-4901 -4936 -4982 0
-4901 4936 4982 0
4901 -4936 4982 0
4982 4980 -4949 0
-4982 -4980 -4949 0
-4982 4980 4949 0
4982 -4980 4949 0
-4901 -4936 4948 0
-4936 -4980 4948 0
-4901 -4980 4948 0
4901 4936 -4948 0
4936 4980 -4948 0
4901 4980 -4948 0
4538 -4983 0
4537 -4983 0
-4538 -4537 4983 0
4538 -4984 0
4538 -4984 0
-4538 -4538 4984 0
4538 -4985 0
4539 -4985 0
-4538 -4539 4985 0
4538 -4986 0
4540 -4986 0
-4538 -4540 4986 0
4538 -4987 0
4541 -4987 0
-4538 -4541 4987 0
4538 -4988 0
4542 -4988 0
-4538 -4542 4988 0
4538 -4989 0
4543 -4989 0
-4538 -4543 4989 0
4538 -4990 0
4544 -4990 0
-4538 -4544 4990 0
4538 -4991 0
4545 -4991 0
-4538 -4545 4991 0
4538 -4992 0
4546 -4992 0
-4538 -4546 4992 0
4538 -4993 0
4547 -4993 0
-4538 -4547 4993 0
4538 -4994 0
4548 -4994 0
-4538 -4548 4994 0
4959 4994 -5007 0
-4959 -4994 -5007 0
-4959 4994 5007 0
4959 -4994 5007 0
4959 -5008 0
4994 -5008 0
-4959 -4994 5008 0
4958 4993 -5010 0
-4958 -4993 -5010 0
-4958 4993 5010 0
4958 -4993 5010 0
5010 5008 -5006 0
-5010 -5008 -5006 0
-5010 5008 5006 0
5010 -5008 5006 0
-4958 -4993 5009 0
-4993 -5008 5009 0
-4958 -5008 5009 0
4958 4993 -5009 0
4993 5008 -5009 0
4958 5008 -5009 0
4957 4992 -5012 0
-4957 -4992 -5012 0
-4957 4992 5012 0
4957 -4992 5012 0
5012 5009 -5005 0
-5012 -5009 -5005 0
-5012 5009 5005 0
5012 -5009 5005 0
-4957 -4992 5011 0
-4992 -5009 5011 0
-4957 -5009 5011 0
4957 4992 -5011 0
4992 5009 -5011 0
4957 5009 -5011 0
4956 4991 -5014 0
-4956 -4991 -5014 0
-4956 4991 5014 0
4956 -4991 5014 0
5014 5011 -5004 0
-5014 -5011 -5004 0
-5014 5011 5004 0
5014 -5011 5004 0
-4956 -4991 5013 0
-4991 -5011 5013 0
-4956 -5011 5013 0
4956 4991 -5013 0
4991 5011 -5013 0
4956 5011 -5013 0
4955 4990 -5016 0
-4955 -4990 -5016 0
-4955 4990 5016 0
4955 -4990 5016 0
5016 5013 -5003 0
-5016 -5013 -5003 0
-5016 5013 5003 0
5016 -5013 5003 0
-4955 -4990 5015 0
-4990 -5013 5015 0
-4955 -5013 5015 0
4955 4990 -5015 0
4990 5013 -5015 0
4955 5013 -5015 0
4954 4989 -5018 0
-4954 -4989 -5018 0
-4954 4989 5018 0
4954 -4989 5018 0
5018 5015 -5002 0
-5018 -5015 -5002 0
-5018 5015 5002 0
5018 -5015 5002 0
-4954 -4989 5017 0
-4989 -5015 5017 0
-4954 -5015 5017 0
4954 4989 -5017 0
4989 5015 -5017 0
4954 5015 -5017 0
4953 4988 -5020 0
-4953 -4988 -5020 0
-4953 4988 5020 0
4953 -4988 5020 0
5020 5017 -5001 0
-5020 -5017 -5001 0
-5020 5017 5001 0
5020 -5017 5001 0
-4953 -4988 5019 0
-4988 -5017 5019 0
-4953 -5017 5019 0
4953 4988 -5019 0
4988 5017 -5019 0
4953 5017 -5019 0
4952 4987 -5022 0
-4952 -4987 -5022 0
-4952 4987 5022 0
4952 -4987 5022 0
5022 5019 -5000 0
-5022 -5019 -5000 0
-5022 5019 5000 0
5022 -5019 5000 0
-4952 -4987 5021 0
-4987 -5019 5021 0
-4952 -5019 5021 0
4952 4987 -5021 0
4987 5019 -5021 0
4952 5019 -5021 0
4951 4986 -5024 0
-4951 -4986 -5024 0
-4951 4986 5024 0
4951 -4986 5024 0
5024 5021 -4999 0
-5024 -5021 -4999 0
-5024 5021 4999 0
5024 -5021 4999 0
-4951 -4986 5023 0
-4986 -5021 5023 0
-4951 -5021 5023 0
4951 4986 -5023 0
4986 5021 -5023 0
4951 5021 -5023 0
4950 4985 -5026 0
-4950 -4985 -5026 0
-4950 4985 5026 0
4950 -4985 5026 0
5026 5023 -4998 0
-5026 -5023 -4998 0
-5026 5023 4998 0
5026 -5023 4998 0
-4950 -4985 5025 0
-4985 -5023 5025 0
-4950 -5023 5025 0
4950 4985 -5025 0
4985 5023 -5025 0
4950 5023 -5025 0
4949 4984 -5028 0
-4949 -4984 -5028 0
-4949 4984 5028 0
4949 -4984 5028 0
5028 5025 -4997 0
-5028 -5025 -4997 0
-5028 5025 4997 0
5028 -5025 4997 0
-4949 -4984 5027 0
-4984 -5025 5027 0
-4949 -5025 5027 0
4949 4984 -5027 0
4984 5025 -5027 0
4949 5025 -5027 0
4948 4983 -5029 0
-4948 -4983 -5029 0
-4948 4983 5029 0
4948 -4983 5029 0
5029 5027 -4996 0
-5029 -5027 -4996 0
-5029 5027 4996 0
5029 -5027 4996 0
-4948 -4983 4995 0
-4983 -5027 4995 0
-4948 -5027 4995 0
4948 4983 -4995 0
4983 5027 -4995 0
4948 5027 -4995 0
4537 -5030 0
4537 -5030 0
-4537 -4537 5030 0
4537 -5031 0
4538 -5031 0
-4537 -4538 5031 0
4537 -5032 0
4539 -5032 0
-4537 -4539 5032 0
4537 -5033 0
4540 -5033 0
-4537 -4540 5033 0
4537 -5034 0
4541 -5034 0
-4537 -4541 5034 0
4537 -5035 0
4542 -5035 0
-4537 -4542 5035 0
4537 -5036 0
4543 -5036 0
-4537 -4543 5036 0
4537 -5037 0
4544 -5037 0
-4537 -4544 5037 0
4537 -5038 0
4545 -5038 0
-4537 -4545 5038 0
4537 -5039 0
4546 -5039 0
-4537 -4546 5039 0
4537 -5040 0
4547 -5040 0
-4537 -4547 5040 0
4537 -5041 0
4548 -5041 0
-4537 -4548 5041 0
5006 5041 -5054 0
-5006 -5041 -5054 0
-5006 5041 5054 0
5006 -5041 5054 0
5006 -5055 0
5041 -5055 0
-5006 -5041 5055 0
5005 5040 -5057 0
-5005 -5040 -5057 0
-5005 5040 5057 0
5005 -5040 5057 0
5057 5055 -5053 0
-5057 -5055 -5053 0
-5057 5055 5053 0
5057 -5055 5053 0
-5005 -5040 5056 0
-5040 -5055 5056 0
-5005 -5055 5056 0
5005 5040 -5056 0
5040 5055 -5056 0
5005 5055 -5056 0
5004 5039 -5059 0
-5004 -5039 -5059 0
-5004 5039 5059 0
5004 -5039 5059 0
5059 5056 -5052 0
-5059 -5056 -5052 0
-5059 5056 5052 0
5059 -5056 5052 0
-5004 -5039 5058 0
-5039 -5056 5058 0
-5004 -5056 5058 0
5004 5039 -5058 0
5039 5056 -5058 0
5004 5056 -5058 0
5003 5038 -5061 0
-5003 -5038 -5061 0
-5003 5038 5061 0
5003 -5038 5061 0
5061 5058 -5051 0
-5061 -5058 -5051 0
-5061 5058 5051 0
5061 -5058 5051 0
-5003 -5038 5060 0
-5038 -5058 5060 0
-5003 -5058 5060 0
5003 5038 -5060 0
5038 5058 -5060 0
5003 5058 -5060 0
5002 5037 -5063 0
-5002 -5037 -5063 0
-5002 5037 5063 0
5002 -5037 5063 0
5063 5060 -5050 0
-5063 -5060 -5050 0
-5063 5060 5050 0
5063 -5060 5050 0
-5002 -5037 5062 0
-5037 -5060 5062 0
-5002 -5060 5062 0
5002 5037 -5062 0
5037 5060 -5062 0
5002 5060 -5062 0
5001 5036 -5065 0
-5001 -5036 -5065 0
-5001 5036 5065 0
5001 -5036 5065 0
5065 5062 -5049 0
-5065 -5062 -5049 0
-5065 5062 5049 0
5065 -5062 5049 0
-5001 -5036 5064 0
-5036 -5062 5064 0
-5001 -5062 5064 0
5001 5036 -5064 0
5036 5062 -5064 0
5001 5062 -5064 0
5000 5035 -5067 0
-5000 -5035 -5067 0
-5000 5035 5067 0
5000 -5035 5067 0
5067 5064 -5048 0
-5067 -5064 -5048 0
-5067 5064 5048 0
5067 -5064 5048 0
-5000 -5035 5066 0
-5035 -5064 5066 0
-5000 -5064 5066 0
5000 5035 -5066 0
5035 5064 -5066 0
5000 5064 -5066 0
4999 5034 -5069 0
-4999 -5034 -5069 0
-4999 5034 5069 0
4999 -5034 5069 0
5069 5066 -5047 0
-5069 -5066 -5047 0
-5069 5066 5047 0
5069 -5066 5047 0
-4999 -5034 5068 0
-5034 -5066 5068 0
-4999 -5066 5068 0
4999 5034 -5068 0
5034 5066 -5068 0
4999 5066 -5068 0
4998 5033 -5071 0
-4998 -5033 -5071 0
-4998 5033 5071 0
4998 -5033 5071 0
5071 5068 -5046 0
-5071 -5068 -5046 0
-5071 5068 5046 0
5071 -5068 5046 0
-4998 -5033 5070 0
-5033 -5068 5070 0
-4998 -5068 5070 0
4998 5033 -5070 0
5033 5068 -5070 0
4998 5068 -5070 0
4997 5032 -5073 0
-4997 -5032 -5073 0
-4997 5032 5073 0
4997 -5032 5073 0
5073 5070 -5045 0
-5073 -5070 -5045 0
-5073 5070 5045 0
5073 -5070 5045 0
-4997 -5032 5072 0
-5032 -5070 5072 0
-4997 -5070 5072 0
4997 5032 -5072 0
5032 5070 -5072 0
4997 5070 -5072 0
4996 5031 -5075 0
-4996 -5031 -5075 0
-4996 5031 5075 0
4996 -5031 5075 0
5075 5072 -5044 0
-5075 -5072 -5044 0
-5075 5072 5044 0
5075 -5072 5044 0
-4996 -5031 5074 0
-5031 -5072 5074 0
-4996 -5072 5074 0
4996 5031 -5074 0
5031 5072 -5074 0
4996 5072 -5074 0
4995 5030 -5076 0
-4995 -5030 -5076 0
-4995 5030 5076 0
4995 -5030 5076 0
5076 5074 -5043 0
-5076 -5074 -5043 0
-5076 5074 5043 0
5076 -5074 5043 0
-4995 -5030 5042 0
-5030 -5074 5042 0
-4995 -5074 5042 0
4995 5030 -5042 0
5030 5074 -5042 0
4995 5074 -5042 0
5042 -193 0
-5042 193 0
5043 -194 0
-5043 194 0
5044 -195 0
-5044 195 0
5045 -196 0
-5045 196 0
5046 -197 0
-5046 197 0
5047 -198 0
-5047 198 0
5048 -199 0
-5048 199 0
5049 -200 0
-5049 200 0
5050 -201 0
-5050 201 0
5051 -202 0
-5051 202 0
5052 -203 0
-5052 203 0
5053 -204 0
-5053 204 0
5054 -205 0
-5054 205 0
5007 -206 0
-5007 206 0
4960 -207 0
-4960 207 0
4913 -208 0
-4913 208 0
4866 -209 0
-4866 209 0
4819 -210 0
-4819 210 0
4772 -211 0
-4772 211 0
4725 -212 0
-4725 212 0
4678 -213 0
-4678 213 0
4631 -214 0
-4631 214 0
4585 -215 0
-4585 215 0
4560 -216 0
-4560 216 0
1 25 -5077 0
-1 -25 -5077 0
-1 25 5077 0
1 -25 5077 0
2 26 -5078 0
-2 -26 -5078 0
-2 26 5078 0
2 -26 5078 0
3 27 -5079 0
-3 -27 -5079 0
-3 27 5079 0
3 -27 5079 0
4 28 -5080 0
-4 -28 -5080 0
-4 28 5080 0
4 -28 5080 0
5 29 -5081 0
-5 -29 -5081 0
-5 29 5081 0
5 -29 5081 0
6 30 -5082 0
-6 -30 -5082 0
-6 30 5082 0
6 -30 5082 0
7 31 -5083 0
-7 -31 -5083 0
-7 31 5083 0
7 -31 5083 0
8 32 -5084 0
-8 -32 -5084 0
-8 32 5084 0
8 -32 5084 0
9 33 -5085 0
-9 -33 -5085 0
-9 33 5085 0
9 -33 5085 0
10 34 -5086 0
-10 -34 -5086 0
-10 34 5086 0
10 -34 5086 0
11 35 -5087 0
-11 -35 -5087 0
-11 35 5087 0
11 -35 5087 0
12 36 -5088 0
-12 -36 -5088 0
-12 36 5088 0
12 -36 5088 0
13 37 -5089 0
-13 -37 -5089 0
-13 37 5089 0
13 -37 5089 0
14 38 -5090 0
-14 -38 -5090 0
-14 38 5090 0
14 -38 5090 0
15 39 -5091 0
-15 -39 -5091 0
-15 39 5091 0
15 -39 5091 0
16 40 -5092 0
-16 -40 -5092 0
-16 40 5092 0
16 -40 5092 0
17 41 -5093 0
-17 -41 -5093 0
-17 41 5093 0
17 -41 5093 0
18 42 -5094 0
-18 -42 -5094 0
-18 42 5094 0
18 -42 5094 0
19 43 -5095 0
-19 -43 -5095 0
-19 43 5095 0
19 -43 5095 0
20 44 -5096 0
-20 -44 -5096 0
-20 44 5096 0
20 -44 5096 0
21 45 -5097 0
-21 -45 -5097 0
-21 45 5097 0
21 -45 5097 0
22 46 -5098 0
-22 -46 -5098 0
-22 46 5098 0
22 -46 5098 0
23 47 -5099 0
-23 -47 -5099 0
-23 47 5099 0
23 -47 5099 0
24 48 -5100 0
-24 -48 -5100 0
-24 48 5100 0
24 -48 5100 0
5077 5078 5079 5080 5081 5082 5083 5084 5085 5086 5087 5088 5089 5090 5091 5092 5093 5094 5095 5096 5097 5098 5099 5100 0
1 49 -5101 0
-1 -49 -5101 0
-1 49 5101 0
1 -49 5101 0
2 50 -5102 0
-2 -50 -5102 0
-2 50 5102 0
2 -50 5102 0
3 51 -5103 0
-3 -51 -5103 0
-3 51 5103 0
3 -51 5103 0
4 52 -5104 0
-4 -52 -5104 0
-4 52 5104 0
4 -52 5104 0
5 53 -5105 0
-5 -53 -5105 0
-5 53 5105 0
5 -53 5105 0
6 54 -5106 0
-6 -54 -5106 0
-6 54 5106 0
6 -54 5106 0
7 55 -5107 0
-7 -55 -5107 0
-7 55 5107 0
7 -55 5107 0
8 56 -5108 0
-8 -56 -5108 0
-8 56 5108 0
8 -56 5108 0
9 57 -5109 0
-9 -57 -5109 0
-9 57 5109 0
9 -57 5109 0
10 58 -5110 0
-10 -58 -5110 0
-10 58 5110 0
10 -58 5110 0
11 59 -5111 0
-11 -59 -5111 0
-11 59 5111 0
11 -59 5111 0
12 60 -5112 0
-12 -60 -5112 0
-12 60 5112 0
12 -60 5112 0
13 61 -5113 0
-13 -61 -5113 0
-13 61 5113 0
13 -61 5113 0
14 62 -5114 0
-14 -62 -5114 0
-14 62 5114 0
14 -62 5114 0
15 63 -5115 0
-15 -63 -5115 0
-15 63 5115 0
15 -63 5115 0
16 64 -5116 0
-16 -64 -5116 0
-16 64 5116 0
16 -64 5116 0
17 65 -5117 0
-17 -65 -5117 0
-17 65 5117 0
17 -65 5117 0
18 66 -5118 0
-18 -66 -5118 0
-18 66 5118 0
18 -66 5118 0
19 67 -5119 0
-19 -67 -5119 0
-19 67 5119 0
19 -67 5119 0
20 68 -5120 0
-20 -68 -5120 0
-20 68 5120 0
20 -68 5120 0
21 69 -5121 0
-21 -69 -5121 0
-21 69 5121 0
21 -69 5121 0
22 70 -5122 0
-22 -70 -5122 0
-22 70 5122 0
22 -70 5122 0
23 71 -5123 0
-23 -71 -5123 0
-23 71 5123 0
23 -71 5123 0
24 72 -5124 0
-24 -72 -5124 0
-24 72 5124 0
24 -72 5124 0
5101 5102 5103 5104 5105 5106 5107 5108 5109 5110 5111 5112 5113 5114 5115 5116 5117 5118 5119 5120 5121 5122 5123 5124 0
1 73 -5125 0
-1 -73 -5125 0
-1 73 5125 0
1 -73 5125 0
2 74 -5126 0
-2 -74 -5126 0
-2 74 5126 0
2 -74 5126 0
3 75 -5127 0
-3 -75 -5127 0
-3 75 5127 0
3 -75 5127 0
4 76 -5128 0
-4 -76 -5128 0
-4 76 5128 0
4 -76 5128 0
5 77 -5129 0
-5 -77 -5129 0
-5 77 5129 0
5 -77 5129 0
6 78 -5130 0
-6 -78 -5130 0
-6 78 5130 0
6 -78 5130 0
7 79 -5131 0
-7 -79 -5131 0
-7 79 5131 0
7 -79 5131 0
8 80 -5132 0
-8 -80 -5132 0
-8 80 5132 0
8 -80 5132 0
9 81 -5133 0
-9 -81 -5133 0
-9 81 5133 0
9 -81 5133 0
10 82 -5134 0
-10 -82 -5134 0
-10 82 5134 0
10 -82 5134 0
11 83 -5135 0
-11 -83 -5135 0
-11 83 5135 0
11 -83 5135 0
12 84 -5136 0
-12 -84 -5136 0
-12 84 5136 0
12 -84 5136 0
13 85 -5137 0
-13 -85 -5137 0
-13 85 5137 0
13 -85 5137 0
14 86 -5138 0
-14 -86 -5138 0
-14 86 5138 0
14 -86 5138 0
15 87 -5139 0
-15 -87 -5139 0
-15 87 5139 0
15 -87 5139 0
16 88 -5140 0
-16 -88 -5140 0
-16 88 5140 0
16 -88 5140 0
17 89 -5141 0
-17 -89 -5141 0
-17 89 5141 0
17 -89 5141 0
18 90 -5142 0
-18 -90 -5142 0
-18 90 5142 0
18 -90 5142 0
19 91 -5143 0
-19 -91 -5143 0
-19 91 5143 0
19 -91 5143 0
20 92 -5144 0
-20 -92 -5144 0
-20 92 5144 0
20 -92 5144 0
21 93 -5145 0
-21 -93 -5145 0
-21 93 5145 0
21 -93 5145 0
22 94 -5146 0
-22 -94 -5146 0
-22 94 5146 0
22 -94 5146 0
23 95 -5147 0
-23 -95 -5147 0
-23 95 5147 0
23 -95 5147 0
24 96 -5148 0
-24 -96 -5148 0
-24 96 5148 0
24 -96 5148 0
5125 5126 5127 5128 5129 5130 5131 5132 5133 5134 5135 5136 5137 5138 5139 5140 5141 5142 5143 5144 5145 5146 5147 5148 0
1 97 -5149 0
-1 -97 -5149 0
-1 97 5149 0
1 -97 5149 0
2 98 -5150 0
-2 -98 -5150 0
-2 98 5150 0
2 -98 5150 0
3 99 -5151 0
-3 -99 -5151 0
-3 99 5151 0
3 -99 5151 0
4 100 -5152 0
-4 -100 -5152 0
-4 100 5152 0
4 -100 5152 0
5 101 -5153 0
-5 -101 -5153 0
-5 101 5153 0
5 -101 5153 0
6 102 -5154 0
-6 -102 -5154 0
-6 102 5154 0
6 -102 5154 0
7 103 -5155 0
-7 -103 -5155 0
-7 103 5155 0
7 -103 5155 0
8 104 -5156 0
-8 -104 -5156 0
-8 104 5156 0
8 -104 5156 0
9 105 -5157 0
-9 -105 -5157 0
-9 105 5157 0
9 -105 5157 0
10 106 -5158 0
-10 -106 -5158 0
-10 106 5158 0
10 -106 5158 0
11 107 -5159 0
-11 -107 -5159 0
-11 107 5159 0
11 -107 5159 0
12 108 -5160 0
-12 -108 -5160 0
-12 108 5160 0
12 -108 5160 0
13 109 -5161 0
-13 -109 -5161 0
-13 109 5161 0
13 -109 5161 0
14 110 -5162 0
-14 -110 -5162 0
-14 110 5162 0
14 -110 5162 0
15 111 -5163 0
-15 -111 -5163 0
-15 111 5163 0
15 -111 5163 0
16 112 -5164 0
-16 -112 -5164 0
-16 112 5164 0
16 -112 5164 0
17 113 -5165 0
-17 -113 -5165 0
-17 113 5165 0
17 -113 5165 0
18 114 -5166 0
-18 -114 -5166 0
-18 114 5166 0
18 -114 5166 0
19 115 -5167 0
-19 -115 -5167 0
-19 115 5167 0
19 -115 5167 0
20 116 -5168 0
-20 -116 -5168 0
-20 116 5168 0
20 -116 5168 0
21 117 -5169 0
-21 -117 -5169 0
-21 117 5169 0
21 -117 5169 0
22 118 -5170 0
-22 -118 -5170 0
-22 118 5170 0
22 -118 5170 0
23 119 -5171 0
-23 -119 -5171 0
-23 119 5171 0
23 -119 5171 0
24 120 -5172 0
-24 -120 -5172 0
-24 120 5172 0
24 -120 5172 0
5149 5150 5151 5152 5153 5154 5155 5156 5157 5158 5159 5160 5161 5162 5163 5164 5165 5166 5167 5168 5169 5170 5171 5172 0
1 121 -5173 0
-1 -121 -5173 0
-1 121 5173 0
1 -121 5173 0
2 122 -5174 0
-2 -122 -5174 0
-2 122 5174 0
2 -122 5174 0
3 123 -5175 0
-3 -123 -5175 0
-3 123 5175 0
3 -123 5175 0
4 124 -5176 0
-4 -124 -5176 0
-4 124 5176 0
4 -124 5176 0
5 125 -5177 0
-5 -125 -5177 0
-5 125 5177 0
5 -125 5177 0
6 126 -5178 0
-6 -126 -5178 0
-6 126 5178 0
6 -126 5178 0
7 127 -5179 0
-7 -127 -5179 0
-7 127 5179 0
7 -127 5179 0
8 128 -5180 0
-8 -128 -5180 0
-8 128 5180 0
8 -128 5180 0
9 129 -5181 0
-9 -129 -5181 0
-9 129 5181 0
9 -129 5181 0
10 130 -5182 0
-10 -130 -5182 0
-10 130 5182 0
10 -130 5182 0
11 131 -5183 0
-11 -131 -5183 0
-11 131 5183 0
11 -131 5183 0
12 132 -5184 0
-12 -132 -5184 0
-12 132 5184 0
12 -132 5184 0
13 133 -5185 0
-13 -133 -5185 0
-13 133 5185 0
13 -133 5185 0
14 134 -5186 0
-14 -134 -5186 0
-14 134 5186 0
14 -134 5186 0
15 135 -5187 0
-15 -135 -5187 0
-15 135 5187 0
15 -135 5187 0
16 136 -5188 0
-16 -136 -5188 0
-16 136 5188 0
16 -136 5188 0
17 137 -5189 0
-17 -137 -5189 0
-17 137 5189 0
17 -137 5189 0
18 138 -5190 0
-18 -138 -5190 0
-18 138 5190 0
18 -138 5190 0
19 139 -5191 0
-19 -139 -5191 0
-19 139 5191 0
19 -139 5191 0
20 140 -5192 0
-20 -140 -5192 0
-20 140 5192 0
20 -140 5192 0
21 141 -5193 0
-21 -141 -5193 0
-21 141 5193 0
21 -141 5193 0
22 142 -5194 0
-22 -142 -5194 0
-22 142 5194 0
22 -142 5194 0
23 143 -5195 0
-23 -143 -5195 0
-23 143 5195 0
23 -143 5195 0
24 144 -5196 0
-24 -144 -5196 0
-24 144 5196 0
24 -144 5196 0
5173 5174 5175 5176 5177 5178 5179 5180 5181 5182 5183 5184 5185 5186 5187 5188 5189 5190 5191 5192 5193 5194 5195 5196 0
1 145 -5197 0
-1 -145 -5197 0
-1 145 5197 0
1 -145 5197 0
2 146 -5198 0
-2 -146 -5198 0
-2 146 5198 0
2 -146 5198 0
3 147 -5199 0
-3 -147 -5199 0
-3 147 5199 0
3 -147 5199 0
4 148 -5200 0
-4 -148 -5200 0
-4 148 5200 0
4 -148 5200 0
5 149 -5201 0
-5 -149 -5201 0
-5 149 5201 0
5 -149 5201 0
6 150 -5202 0
-6 -150 -5202 0
-6 150 5202 0
6 -150 5202 0
7 151 -5203 0
-7 -151 -5203 0
-7 151 5203 0
7 -151 5203 0
8 152 -5204 0
-8 -152 -5204 0
-8 152 5204 0
8 -152 5204 0
9 153 -5205 0
-9 -153 -5205 0
-9 153 5205 0
9 -153 5205 0
10 154 -5206 0
-10 -154 -5206 0
-10 154 5206 0
10 -154 5206 0
11 155 -5207 0
-11 -155 -5207 0
-11 155 5207 0
11 -155 5207 0
12 156 -5208 0
-12 -156 -5208 0
-12 156 5208 0
12 -156 5208 0
13 157 -5209 0
-13 -157 -5209 0
-13 157 5209 0
13 -157 5209 0
14 158 -5210 0
-14 -158 -5210 0
-14 158 5210 0
14 -158 5210 0
15 159 -5211 0
-15 -159 -5211 0
-15 159 5211 0
15 -159 5211 0
16 160 -5212 0
-16 -160 -5212 0
-16 160 5212 0
16 -160 5212 0
17 161 -5213 0
-17 -161 -5213 0
-17 161 5213 0
17 -161 5213 0
18 162 -5214 0
-18 -162 -5214 0
-18 162 5214 0
18 -162 5214 0
19 163 -5215 0
-19 -163 -5215 0
-19 163 5215 0
19 -163 5215 0
20 164 -5216 0
-20 -164 -5216 0
-20 164 5216 0
20 -164 5216 0
21 165 -5217 0
-21 -165 -5217 0
-21 165 5217 0
21 -165 5217 0
22 166 -5218 0
-22 -166 -5218 0
-22 166 5218 0
22 -166 5218 0
23 167 -5219 0
-23 -167 -5219 0
-23 167 5219 0
23 -167 5219 0
24 168 -5220 0
-24 -168 -5220 0
-24 168 5220 0
24 -168 5220 0
5197 5198 5199 5200 5201 5202 5203 5204 5205 5206 5207 5208 5209 5210 5211 5212 5213 5214 5215 5216 5217 5218 5219 5220 0
1 169 -5221 0
-1 -169 -5221 0
-1 169 5221 0
1 -169 5221 0
2 170 -5222 0
-2 -170 -5222 0
-2 170 5222 0
2 -170 5222 0
3 171 -5223 0
-3 -171 -5223 0
-3 171 5223 0
3 -171 5223 0
4 172 -5224 0
-4 -172 -5224 0
-4 172 5224 0
4 -172 5224 0
5 173 -5225 0
-5 -173 -5225 0
-5 173 5225 0
5 -173 5225 0
6 174 -5226 0
-6 -174 -5226 0
-6 174 5226 0
6 -174 5226 0
7 175 -5227 0
-7 -175 -5227 0
-7 175 5227 0
7 -175 5227 0
8 176 -5228 0
-8 -176 -5228 0
-8 176 5228 0
8 -176 5228 0
9 177 -5229 0
-9 -177 -5229 0
-9 177 5229 0
9 -177 5229 0
10 178 -5230 0
-10 -178 -5230 0
-10 178 5230 0
10 -178 5230 0
11 179 -5231 0
-11 -179 -5231 0
-11 179 5231 0
11 -179 5231 0
12 180 -5232 0
-12 -180 -5232 0
-12 180 5232 0
12 -180 5232 0
13 181 -5233 0
-13 -181 -5233 0
-13 181 5233 0
13 -181 5233 0
14 182 -5234 0
-14 -182 -5234 0
-14 182 5234 0
14 -182 5234 0
15 183 -5235 0
-15 -183 -5235 0
-15 183 5235 0
15 -183 5235 0
16 184 -5236 0
-16 -184 -5236 0
-16 184 5236 0
16 -184 5236 0
17 185 -5237 0
-17 -185 -5237 0
-17 185 5237 0
17 -185 5237 0
18 186 -5238 0
-18 -186 -5238 0
-18 186 5238 0
18 -186 5238 0
19 187 -5239 0
-19 -187 -5239 0
-19 187 5239 0
19 -187 5239 0
20 188 -5240 0
-20 -188 -5240 0
-20 188 5240 0
20 -188 5240 0
21 189 -5241 0
-21 -189 -5241 0
-21 189 5241 0
21 -189 5241 0
22 190 -5242 0
-22 -190 -5242 0
-22 190 5242 0
22 -190 5242 0
23 191 -5243 0
-23 -191 -5243 0
-23 191 5243 0
23 -191 5243 0
24 192 -5244 0
-24 -192 -5244 0
-24 192 5244 0
24 -192 5244 0
5221 5222 5223 5224 5225 5226 5227 5228 5229 5230 5231 5232 5233 5234 5235 5236 5237 5238 5239 5240 5241 5242 5243 5244 0
1 193 -5245 0
-1 -193 -5245 0
-1 193 5245 0
1 -193 5245 0
2 194 -5246 0
-2 -194 -5246 0
-2 194 5246 0
2 -194 5246 0
3 195 -5247 0
-3 -195 -5247 0
-3 195 5247 0
3 -195 5247 0
4 196 -5248 0
-4 -196 -5248 0
-4 196 5248 0
4 -196 5248 0
5 197 -5249 0
-5 -197 -5249 0
-5 197 5249 0
5 -197 5249 0
6 198 -5250 0
-6 -198 -5250 0
-6 198 5250 0
6 -198 5250 0
7 199 -5251 0
-7 -199 -5251 0
-7 199 5251 0
7 -199 5251 0
8 200 -5252 0
-8 -200 -5252 0
-8 200 5252 0
8 -200 5252 0
9 201 -5253 0
-9 -201 -5253 0
-9 201 5253 0
9 -201 5253 0
10 202 -5254 0
-10 -202 -5254 0
-10 202 5254 0
10 -202 5254 0
11 203 -5255 0
-11 -203 -5255 0
-11 203 5255 0
11 -203 5255 0
12 204 -5256 0
-12 -204 -5256 0
-12 204 5256 0
12 -204 5256 0
13 205 -5257 0
-13 -205 -5257 0
-13 205 5257 0
13 -205 5257 0
14 206 -5258 0
-14 -206 -5258 0
-14 206 5258 0
14 -206 5258 0
15 207 -5259 0
-15 -207 -5259 0
-15 207 5259 0
15 -207 5259 0
16 208 -5260 0
-16 -208 -5260 0
-16 208 5260 0
16 -208 5260 0
17 209 -5261 0
-17 -209 -5261 0
-17 209 5261 0
17 -209 5261 0
18 210 -5262 0
-18 -210 -5262 0
-18 210 5262 0
18 -210 5262 0
19 211 -5263 0
-19 -211 -5263 0
-19 211 5263 0
19 -211 5263 0
20 212 -5264 0
-20 -212 -5264 0
-20 212 5264 0
20 -212 5264 0
21 213 -5265 0
-21 -213 -5265 0
-21 213 5265 0
21 -213 5265 0
22 214 -5266 0
-22 -214 -5266 0
-22 214 5266 0
22 -214 5266 0
23 215 -5267 0
-23 -215 -5267 0
-23 215 5267 0
23 -215 5267 0
24 216 -5268 0
-24 -216 -5268 0
-24 216 5268 0
24 -216 5268 0
5245 5246 5247 5248 5249 5250 5251 5252 5253 5254 5255 5256 5257 5258 5259 5260 5261 5262 5263 5264 5265 5266 5267 5268 0
25 49 -5269 0
-25 -49 -5269 0
-25 49 5269 0
25 -49 5269 0
26 50 -5270 0
-26 -50 -5270 0
-26 50 5270 0
26 -50 5270 0
27 51 -5271 0
-27 -51 -5271 0
-27 51 5271 0
27 -51 5271 0
28 52 -5272 0
-28 -52 -5272 0
-28 52 5272 0
28 -52 5272 0
29 53 -5273 0
-29 -53 -5273 0
-29 53 5273 0
29 -53 5273 0
30 54 -5274 0
-30 -54 -5274 0
-30 54 5274 0
30 -54 5274 0
31 55 -5275 0
-31 -55 -5275 0
-31 55 5275 0
31 -55 5275 0
32 56 -5276 0
-32 -56 -5276 0
-32 56 5276 0
32 -56 5276 0
33 57 -5277 0
-33 -57 -5277 0
-33 57 5277 0
33 -57 5277 0
34 58 -5278 0
-34 -58 -5278 0
-34 58 5278 0
34 -58 5278 0
35 59 -5279 0
-35 -59 -5279 0
-35 59 5279 0
35 -59 5279 0
36 60 -5280 0
-36 -60 -5280 0
-36 60 5280 0
36 -60 5280 0
37 61 -5281 0
-37 -61 -5281 0
-37 61 5281 0
37 -61 5281 0
38 62 -5282 0
-38 -62 -5282 0
-38 62 5282 0
38 -62 5282 0
39 63 -5283 0
-39 -63 -5283 0
-39 63 5283 0
39 -63 5283 0
40 64 -5284 0
-40 -64 -5284 0
-40 64 5284 0
40 -64 5284 0
41 65 -5285 0
-41 -65 -5285 0
-41 65 5285 0
41 -65 5285 0
42 66 -5286 0
-42 -66 -5286 0
-42 66 5286 0
42 -66 5286 0
43 67 -5287 0
-43 -67 -5287 0
-43 67 5287 0
43 -67 5287 0
44 68 -5288 0
-44 -68 -5288 0
-44 68 5288 0
44 -68 5288 0
45 69 -5289 0
-45 -69 -5289 0
-45 69 5289 0
45 -69 5289 0
46 70 -5290 0
-46 -70 -5290 0
-46 70 5290 0
46 -70 5290 0
47 71 -5291 0
-47 -71 -5291 0
-47 71 5291 0
47 -71 5291 0
48 72 -5292 0
-48 -72 -5292 0
-48 72 5292 0
48 -72 5292 0
5269 5270 5271 5272 5273 5274 5275 5276 5277 5278 5279 5280 5281 5282 5283 5284 5285 5286 5287 5288 5289 5290 5291 5292 0
25 73 -5293 0
-25 -73 -5293 0
-25 73 5293 0
25 -73 5293 0
26 74 -5294 0
-26 -74 -5294 0
-26 74 5294 0
26 -74 5294 0
27 75 -5295 0
-27 -75 -5295 0
-27 75 5295 0
27 -75 5295 0
28 76 -5296 0
-28 -76 -5296 0
-28 76 5296 0
28 -76 5296 0
29 77 -5297 0
-29 -77 -5297 0
-29 77 5297 0
29 -77 5297 0
30 78 -5298 0
-30 -78 -5298 0
-30 78 5298 0
30 -78 5298 0
31 79 -5299 0
-31 -79 -5299 0
-31 79 5299 0
31 -79 5299 0
32 80 -5300 0
-32 -80 -5300 0
-32 80 5300 0
32 -80 5300 0
33 81 -5301 0
-33 -81 -5301 0
-33 81 5301 0
33 -81 5301 0
34 82 -5302 0
-34 -82 -5302 0
-34 82 5302 0
34 -82 5302 0
35 83 -5303 0
-35 -83 -5303 0
-35 83 5303 0
35 -83 5303 0
36 84 -5304 0
-36 -84 -5304 0
-36 84 5304 0
36 -84 5304 0
37 85 -5305 0
-37 -85 -5305 0
-37 85 5305 0
37 -85 5305 0
38 86 -5306 0
-38 -86 -5306 0
-38 86 5306 0
38 -86 5306 0
39 87 -5307 0
-39 -87 -5307 0
-39 87 5307 0
39 -87 5307 0
40 88 -5308 0
-40 -88 -5308 0
-40 88 5308 0
40 -88 5308 0
41 89 -5309 0
-41 -89 -5309 0
-41 89 5309 0
41 -89 5309 0
42 90 -5310 0
-42 -90 -5310 0
-42 90 5310 0
42 -90 5310 0
43 91 -5311 0
-43 -91 -5311 0
-43 91 5311 0
43 -91 5311 0
44 92 -5312 0
-44 -92 -5312 0
-44 92 5312 0
44 -92 5312 0
45 93 -5313 0
-45 -93 -5313 0
-45 93 5313 0
45 -93 5313 0
46 94 -5314 0
-46 -94 -5314 0
-46 94 5314 0
46 -94 5314 0
47 95 -5315 0
-47 -95 -5315 0
-47 95 5315 0
47 -95 5315 0
48 96 -5316 0
-48 -96 -5316 0
-48 96 5316 0
48 -96 5316 0
5293 5294 5295 5296 5297 5298 5299 5300 5301 5302 5303 5304 5305 5306 5307 5308 5309 5310 5311 5312 5313 5314 5315 5316 0
25 97 -5317 0
-25 -97 -5317 0
-25 97 5317 0
25 -97 5317 0
26 98 -5318 0
-26 -98 -5318 0
-26 98 5318 0
26 -98 5318 0
27 99 -5319 0
-27 -99 -5319 0
-27 99 5319 0
27 -99 5319 0
28 100 -5320 0
-28 -100 -5320 0
-28 100 5320 0
28 -100 5320 0
29 101 -5321 0
-29 -101 -5321 0
-29 101 5321 0
29 -101 5321 0
30 102 -5322 0
-30 -102 -5322 0
-30 102 5322 0
30 -102 5322 0
31 103 -5323 0
-31 -103 -5323 0
-31 103 5323 0
31 -103 5323 0
32 104 -5324 0
-32 -104 -5324 0
-32 104 5324 0
32 -104 5324 0
33 105 -5325 0
-33 -105 -5325 0
-33 105 5325 0
33 -105 5325 0
34 106 -5326 0
-34 -106 -5326 0
-34 106 5326 0
34 -106 5326 0
35 107 -5327 0
-35 -107 -5327 0
-35 107 5327 0
35 -107 5327 0
36 108 -5328 0
-36 -108 -5328 0
-36 108 5328 0
36 -108 5328 0
37 109 -5329 0
-37 -109 -5329 0
-37 109 5329 0
37 -109 5329 0
38 110 -5330 0
-38 -110 -5330 0
-38 110 5330 0
38 -110 5330 0
39 111 -5331 0
-39 -111 -5331 0
-39 111 5331 0
39 -111 5331 0
40 112 -5332 0
-40 -112 -5332 0
-40 112 5332 0
40 -112 5332 0
41 113 -5333 0
-41 -113 -5333 0
-41 113 5333 0
41 -113 5333 0
42 114 -5334 0
-42 -114 -5334 0
-42 114 5334 0
42 -114 5334 0
43 115 -5335 0
-43 -115 -5335 0
-43 115 5335 0
43 -115 5335 0
44 116 -5336 0
-44 -116 -5336 0
-44 116 5336 0
44 -116 5336 0
45 117 -5337 0
-45 -117 -5337 0
-45 117 5337 0
45 -117 5337 0
46 118 -5338 0
-46 -118 -5338 0
-46 118 5338 0
46 -118 5338 0
47 119 -5339 0
-47 -119 -5339 0
-47 119 5339 0
47 -119 5339 0
48 120 -5340 0
-48 -120 -5340 0
-48 120 5340 0
48 -120 5340 0
5317 5318 5319 5320 5321 5322 5323 5324 5325 5326 5327 5328 5329 5330 5331 5332 5333 5334 5335 5336 5337 5338 5339 5340 0
25 121 -5341 0
-25 -121 -5341 0
-25 121 5341 0
25 -121 5341 0
26 122 -5342 0
-26 -122 -5342 0
-26 122 5342 0
26 -122 5342 0
27 123 -5343 0
-27 -123 -5343 0
-27 123 5343 0
27 -123 5343 0
28 124 -5344 0
-28 -124 -5344 0
-28 124 5344 0
28 -124 5344 0
29 125 -5345 0
-29 -125 -5345 0
-29 125 5345 0
29 -125 5345 0
30 126 -5346 0
-30 -126 -5346 0
-30 126 5346 0
30 -126 5346 0
31 127 -5347 0
-31 -127 -5347 0
-31 127 5347 0
31 -127 5347 0
32 128 -5348 0
-32 -128 -5348 0
-32 128 5348 0
32 -128 5348 0
33 129 -5349 0
-33 -129 -5349 0
-33 129 5349 0
33 -129 5349 0
34 130 -5350 0
-34 -130 -5350 0
-34 130 5350 0
34 -130 5350 0
35 131 -5351 0
-35 -131 -5351 0
-35 131 5351 0
35 -131 5351 0
36 132 -5352 0
-36 -132 -5352 0
-36 132 5352 0
36 -132 5352 0
37 133 -5353 0
-37 -133 -5353 0
-37 133 5353 0
37 -133 5353 0
38 134 -5354 0
-38 -134 -5354 0
-38 134 5354 0
38 -134 5354 0
39 135 -5355 0
-39 -135 -5355 0
-39 135 5355 0
39 -135 5355 0
40 136 -5356 0
-40 -136 -5356 0
-40 136 5356 0
40 -136 5356 0
41 137 -5357 0
-41 -137 -5357 0
-41 137 5357 0
41 -137 5357 0
42 138 -5358 0
-42 -138 -5358 0
-42 138 5358 0
42 -138 5358 0
43 139 -5359 0
-43 -139 -5359 0
-43 139 5359 0
43 -139 5359 0
44 140 -5360 0
-44 -140 -5360 0
-44 140 5360 0
44 -140 5360 0
45 141 -5361 0
-45 -141 -5361 0
-45 141 5361 0
45 -141 5361 0
46 142 -5362 0
-46 -142 -5362 0
-46 142 5362 0
46 -142 5362 0
47 143 -5363 0
-47 -143 -5363 0
-47 143 5363 0
47 -143 5363 0
48 144 -5364 0
-48 -144 -5364 0
-48 144 5364 0
48 -144 5364 0
5341 5342 5343 5344 5345 5346 5347 5348 5349 5350 5351 5352 5353 5354 5355 5356 5357 5358 5359 5360 5361 5362 5363 5364 0
25 145 -5365 0
-25 -145 -5365 0
-25 145 5365 0
25 -145 5365 0
26 146 -5366 0
-26 -146 -5366 0
-26 146 5366 0
26 -146 5366 0
27 147 -5367 0
-27 -147 -5367 0
-27 147 5367 0
27 -147 5367 0
28 148 -5368 0
-28 -148 -5368 0
-28 148 5368 0
28 -148 5368 0
29 149 -5369 0
-29 -149 -5369 0
-29 149 5369 0
29 -149 5369 0
30 150 -5370 0
-30 -150 -5370 0
-30 150 5370 0
30 -150 5370 0
31 151 -5371 0
-31 -151 -5371 0
-31 151 5371 0
31 -151 5371 0
32 152 -5372 0
-32 -152 -5372 0
-32 152 5372 0
32 -152 5372 0
33 153 -5373 0
-33 -153 -5373 0
-33 153 5373 0
33 -153 5373 0
34 154 -5374 0
-34 -154 -5374 0
-34 154 5374 0
34 -154 5374 0
35 155 -5375 0
-35 -155 -5375 0
-35 155 5375 0
35 -155 5375 0
36 156 -5376 0
-36 -156 -5376 0
-36 156 5376 0
36 -156 5376 0
37 157 -5377 0
-37 -157 -5377 0
-37 157 5377 0
37 -157 5377 0
38 158 -5378 0
-38 -158 -5378 0
-38 158 5378 0
38 -158 5378 0
39 159 -5379 0
-39 -159 -5379 0
-39 159 5379 0
39 -159 5379 0
40 160 -5380 0
-40 -160 -5380 0
-40 160 5380 0
40 -160 5380 0
41 161 -5381 0
-41 -161 -5381 0
-41 161 5381 0
41 -161 5381 0
42 162 -5382 0
-42 -162 -5382 0
-42 162 5382 0
42 -162 5382 0
43 163 -5383 0
-43 -163 -5383 0
-43 163 5383 0
43 -163 5383 0
44 164 -5384 0
-44 -164 -5384 0
-44 164 5384 0
44 -164 5384 0
45 165 -5385 0
-45 -165 -5385 0
-45 165 5385 0
45 -165 5385 0
46 166 -5386 0
-46 -166 -5386 0
-46 166 5386 0
46 -166 5386 0
47 167 -5387 0
-47 -167 -5387 0
-47 167 5387 0
47 -167 5387 0
48 168 -5388 0
-48 -168 -5388 0
-48 168 5388 0
48 -168 5388 0
5365 5366 5367 5368 5369 5370 5371 5372 5373 5374 5375 5376 5377 5378 5379 5380 5381 5382 5383 5384 5385 5386 5387 5388 0
25 169 -5389 0
-25 -169 -5389 0
-25 169 5389 0
25 -169 5389 0
26 170 -5390 0
-26 -170 -5390 0
-26 170 5390 0
26 -170 5390 0
27 171 -5391 0
-27 -171 -5391 0
-27 171 5391 0
27 -171 5391 0
28 172 -5392 0
-28 -172 -5392 0
-28 172 5392 0
28 -172 5392 0
29 173 -5393 0
-29 -173 -5393 0
-29 173 5393 0
29 -173 5393 0
30 174 -5394 0
-30 -174 -5394 0
-30 174 5394 0
30 -174 5394 0
31 175 -5395 0
-31 -175 -5395 0
-31 175 5395 0
31 -175 5395 0
32 176 -5396 0
-32 -176 -5396 0
-32 176 5396 0
32 -176 5396 0
33 177 -5397 0
-33 -177 -5397 0
-33 177 5397 0
33 -177 5397 0
34 178 -5398 0
-34 -178 -5398 0
-34 178 5398 0
34 -178 5398 0
35 179 -5399 0
-35 -179 -5399 0
-35 179 5399 0
35 -179 5399 0
36 180 -5400 0
-36 -180 -5400 0
-36 180 5400 0
36 -180 5400 0
37 181 -5401 0
-37 -181 -5401 0
-37 181 5401 0
37 -181 5401 0
38 182 -5402 0
-38 -182 -5402 0
-38 182 5402 0
38 -182 5402 0
39 183 -5403 0
-39 -183 -5403 0
-39 183 5403 0
39 -183 5403 0
40 184 -5404 0
-40 -184 -5404 0
-40 184 5404 0
40 -184 5404 0
41 185 -5405 0
-41 -185 -5405 0
-41 185 5405 0
41 -185 5405 0
42 186 -5406 0
-42 -186 -5406 0
-42 186 5406 0
42 -186 5406 0
43 187 -5407 0
-43 -187 -5407 0
-43 187 5407 0
43 -187 5407 0
44 188 -5408 0
-44 -188 -5408 0
-44 188 5408 0
44 -188 5408 0
45 189 -5409 0
-45 -189 -5409 0
-45 189 5409 0
45 -189 5409 0
46 190 -5410 0
-46 -190 -5410 0
-46 190 5410 0
46 -190 5410 0
47 191 -5411 0
-47 -191 -5411 0
-47 191 5411 0
47 -191 5411 0
48 192 -5412 0
-48 -192 -5412 0
-48 192 5412 0
48 -192 5412 0
5389 5390 5391 5392 5393 5394 5395 5396 5397 5398 5399 5400 5401 5402 5403 5404 5405 5406 5407 5408 5409 5410 5411 5412 0
25 193 -5413 0
-25 -193 -5413 0
-25 193 5413 0
25 -193 5413 0
26 194 -5414 0
-26 -194 -5414 0
-26 194 5414 0
26 -194 5414 0
27 195 -5415 0
-27 -195 -5415 0
-27 195 5415 0
27 -195 5415 0
28 196 -5416 0
-28 -196 -5416 0
-28 196 5416 0
28 -196 5416 0
29 197 -5417 0
-29 -197 -5417 0
-29 197 5417 0
29 -197 5417 0
30 198 -5418 0
-30 -198 -5418 0
-30 198 5418 0
30 -198 5418 0
31 199 -5419 0
-31 -199 -5419 0
-31 199 5419 0
31 -199 5419 0
32 200 -5420 0
-32 -200 -5420 0
-32 200 5420 0
32 -200 5420 0
33 201 -5421 0
-33 -201 -5421 0
-33 201 5421 0
33 -201 5421 0
34 202 -5422 0
-34 -202 -5422 0
-34 202 5422 0
34 -202 5422 0
35 203 -5423 0
-35 -203 -5423 0
-35 203 5423 0
35 -203 5423 0
36 204 -5424 0
-36 -204 -5424 0
-36 204 5424 0
36 -204 5424 0
37 205 -5425 0
-37 -205 -5425 0
-37 205 5425 0
37 -205 5425 0
38 206 -5426 0
-38 -206 -5426 0
-38 206 5426 0
38 -206 5426 0
39 207 -5427 0
-39 -207 -5427 0
-39 207 5427 0
39 -207 5427 0
40 208 -5428 0
-40 -208 -5428 0
-40 208 5428 0
40 -208 5428 0
41 209 -5429 0
-41 -209 -5429 0
-41 209 5429 0
41 -209 5429 0
42 210 -5430 0
-42 -210 -5430 0
-42 210 5430 0
42 -210 5430 0
43 211 -5431 0
-43 -211 -5431 0
-43 211 5431 0
43 -211 5431 0
44 212 -5432 0
-44 -212 -5432 0
-44 212 5432 0
44 -212 5432 0
45 213 -5433 0
-45 -213 -5433 0
-45 213 5433 0
45 -213 5433 0
46 214 -5434 0
-46 -214 -5434 0
-46 214 5434 0
46 -214 5434 0
47 215 -5435 0
-47 -215 -5435 0
-47 215 5435 0
47 -215 5435 0
48 216 -5436 0
-48 -216 -5436 0
-48 216 5436 0
48 -216 5436 0
5413 5414 5415 5416 5417 5418 5419 5420 5421 5422 5423 5424 5425 5426 5427 5428 5429 5430 5431 5432 5433 5434 5435 5436 0
49 73 -5437 0
-49 -73 -5437 0
-49 73 5437 0
49 -73 5437 0
50 74 -5438 0
-50 -74 -5438 0
-50 74 5438 0
50 -74 5438 0
51 75 -5439 0
-51 -75 -5439 0
-51 75 5439 0
51 -75 5439 0
52 76 -5440 0
-52 -76 -5440 0
-52 76 5440 0
52 -76 5440 0
53 77 -5441 0
-53 -77 -5441 0
-53 77 5441 0
53 -77 5441 0
54 78 -5442 0
-54 -78 -5442 0
-54 78 5442 0
54 -78 5442 0
55 79 -5443 0
-55 -79 -5443 0
-55 79 5443 0
55 -79 5443 0
56 80 -5444 0
-56 -80 -5444 0
-56 80 5444 0
56 -80 5444 0
57 81 -5445 0
-57 -81 -5445 0
-57 81 5445 0
57 -81 5445 0
58 82 -5446 0
-58 -82 -5446 0
-58 82 5446 0
58 -82 5446 0
59 83 -5447 0
-59 -83 -5447 0
-59 83 5447 0
59 -83 5447 0
60 84 -5448 0
-60 -84 -5448 0
-60 84 5448 0
60 -84 5448 0
61 85 -5449 0
-61 -85 -5449 0
-61 85 5449 0
61 -85 5449 0
62 86 -5450 0
-62 -86 -5450 0
-62 86 5450 0
62 -86 5450 0
63 87 -5451 0
-63 -87 -5451 0
-63 87 5451 0
63 -87 5451 0
64 88 -5452 0
-64 -88 -5452 0
-64 88 5452 0
64 -88 5452 0
65 89 -5453 0
-65 -89 -5453 0
-65 89 5453 0
65 -89 5453 0
66 90 -5454 0
-66 -90 -5454 0
-66 90 5454 0
66 -90 5454 0
67 91 -5455 0
-67 -91 -5455 0
-67 91 5455 0
67 -91 5455 0
68 92 -5456 0
-68 -92 -5456 0
-68 92 5456 0
68 -92 5456 0
69 93 -5457 0
-69 -93 -5457 0
-69 93 5457 0
69 -93 5457 0
70 94 -5458 0
-70 -94 -5458 0
-70 94 5458 0
70 -94 5458 0
71 95 -5459 0
-71 -95 -5459 0
-71 95 5459 0
71 -95 5459 0
72 96 -5460 0
-72 -96 -5460 0
-72 96 5460 0
72 -96 5460 0
5437 5438 5439 5440 5441 5442 5443 5444 5445 5446 5447 5448 5449 5450 5451 5452 5453 5454 5455 5456 5457 5458 5459 5460 0
49 97 -5461 0
-49 -97 -5461 0
-49 97 5461 0
49 -97 5461 0
50 98 -5462 0
-50 -98 -5462 0
-50 98 5462 0
50 -98 5462 0
51 99 -5463 0
-51 -99 -5463 0
-51 99 5463 0
51 -99 5463 0
52 100 -5464 0
-52 -100 -5464 0
-52 100 5464 0
52 -100 5464 0
53 101 -5465 0
-53 -101 -5465 0
-53 101 5465 0
53 -101 5465 0
54 102 -5466 0
-54 -102 -5466 0
-54 102 5466 0
54 -102 5466 0
55 103 -5467 0
-55 -103 -5467 0
-55 103 5467 0
55 -103 5467 0
56 104 -5468 0
-56 -104 -5468 0
-56 104 5468 0
56 -104 5468 0
57 105 -5469 0
-57 -105 -5469 0
-57 105 5469 0
57 -105 5469 0
58 106 -5470 0
-58 -106 -5470 0
-58 106 5470 0
58 -106 5470 0
59 107 -5471 0
-59 -107 -5471 0
-59 107 5471 0
59 -107 5471 0
60 108 -5472 0
-60 -108 -5472 0
-60 108 5472 0
60 -108 5472 0
61 109 -5473 0
-61 -109 -5473 0
-61 109 5473 0
61 -109 5473 0
62 110 -5474 0
-62 -110 -5474 0
-62 110 5474 0
62 -110 5474 0
63 111 -5475 0
-63 -111 -5475 0
-63 111 5475 0
63 -111 5475 0
64 112 -5476 0
-64 -112 -5476 0
-64 112 5476 0
64 -112 5476 0
65 113 -5477 0
-65 -113 -5477 0
-65 113 5477 0
65 -113 5477 0
66 114 -5478 0
-66 -114 -5478 0
-66 114 5478 0
66 -114 5478 0
67 115 -5479 0
-67 -115 -5479 0
-67 115 5479 0
67 -115 5479 0
68 116 -5480 0
-68 -116 -5480 0
-68 116 5480 0
68 -116 5480 0
69 117 -5481 0
-69 -117 -5481 0
-69 117 5481 0
69 -117 5481 0
70 118 -5482 0
-70 -118 -5482 0
-70 118 5482 0
70 -118 5482 0
71 119 -5483 0
-71 -119 -5483 0
-71 119 5483 0
71 -119 5483 0
72 120 -5484 0
-72 -120 -5484 0
-72 120 5484 0
72 -120 5484 0
5461 5462 5463 5464 5465 5466 5467 5468 5469 5470 5471 5472 5473 5474 5475 5476 5477 5478 5479 5480 5481 5482 5483 5484 0
49 121 -5485 0
-49 -121 -5485 0
-49 121 5485 0
49 -121 5485 0
50 122 -5486 0
-50 -122 -5486 0
-50 122 5486 0
50 -122 5486 0
51 123 -5487 0
-51 -123 -5487 0
-51 123 5487 0
51 -123 5487 0
52 124 -5488 0
-52 -124 -5488 0
-52 124 5488 0
52 -124 5488 0
53 125 -5489 0
-53 -125 -5489 0
-53 125 5489 0
53 -125 5489 0
54 126 -5490 0
-54 -126 -5490 0
-54 126 5490 0
54 -126 5490 0
55 127 -5491 0
-55 -127 -5491 0
-55 127 5491 0
55 -127 5491 0
56 128 -5492 0
-56 -128 -5492 0
-56 128 5492 0
56 -128 5492 0
57 129 -5493 0
-57 -129 -5493 0
-57 129 5493 0
57 -129 5493 0
58 130 -5494 0
-58 -130 -5494 0
-58 130 5494 0
58 -130 5494 0
59 131 -5495 0
-59 -131 -5495 0
-59 131 5495 0
59 -131 5495 0
60 132 -5496 0
-60 -132 -5496 0
-60 132 5496 0
60 -132 5496 0
61 133 -5497 0
-61 -133 -5497 0
-61 133 5497 0
61 -133 5497 0
62 134 -5498 0
-62 -134 -5498 0
-62 134 5498 0
62 -134 5498 0
63 135 -5499 0
-63 -135 -5499 0
-63 135 5499 0
63 -135 5499 0
64 136 -5500 0
-64 -136 -5500 0
-64 136 5500 0
64 -136 5500 0
65 137 -5501 0
-65 -137 -5501 0
-65 137 5501 0
65 -137 5501 0
66 138 -5502 0
-66 -138 -5502 0
-66 138 5502 0
66 -138 5502 0
67 139 -5503 0
-67 -139 -5503 0
-67 139 5503 0
67 -139 5503 0
68 140 -5504 0
-68 -140 -5504 0
-68 140 5504 0
68 -140 5504 0
69 141 -5505 0
-69 -141 -5505 0
-69 141 5505 0
69 -141 5505 0
70 142 -5506 0
-70 -142 -5506 0
-70 142 5506 0
70 -142 5506 0
71 143 -5507 0
-71 -143 -5507 0
-71 143 5507 0
71 -143 5507 0
72 144 -5508 0
-72 -144 -5508 0
-72 144 5508 0
72 -144 5508 0
5485 5486 5487 5488 5489 5490 5491 5492 5493 5494 5495 5496 5497 5498 5499 5500 5501 5502 5503 5504 5505 5506 5507 5508 0
49 145 -5509 0
-49 -145 -5509 0
-49 145 5509 0
49 -145 5509 0
50 146 -5510 0
-50 -146 -5510 0
-50 146 5510 0
50 -146 5510 0
51 147 -5511 0
-51 -147 -5511 0
-51 147 5511 0
51 -147 5511 0
52 148 -5512 0
-52 -148 -5512 0
-52 148 5512 0
52 -148 5512 0
53 149 -5513 0
-53 -149 -5513 0
-53 149 5513 0
53 -149 5513 0
54 150 -5514 0
-54 -150 -5514 0
-54 150 5514 0
54 -150 5514 0
55 151 -5515 0
-55 -151 -5515 0
-55 151 5515 0
55 -151 5515 0
56 152 -5516 0
-56 -152 -5516 0
-56 152 5516 0
56 -152 5516 0
57 153 -5517 0
-57 -153 -5517 0
-57 153 5517 0
57 -153 5517 0
58 154 -5518 0
-58 -154 -5518 0
-58 154 5518 0
58 -154 5518 0
59 155 -5519 0
-59 -155 -5519 0
-59 155 5519 0
59 -155 5519 0
60 156 -5520 0
-60 -156 -5520 0
-60 156 5520 0
60 -156 5520 0
61 157 -5521 0
-61 -157 -5521 0
-61 157 5521 0
61 -157 5521 0
62 158 -5522 0
-62 -158 -5522 0
-62 158 5522 0
62 -158 5522 0
63 159 -5523 0
-63 -159 -5523 0
-63 159 5523 0
63 -159 5523 0
64 160 -5524 0
-64 -160 -5524 0
-64 160 5524 0
64 -160 5524 0
65 161 -5525 0
-65 -161 -5525 0
-65 161 5525 0
65 -161 5525 0
66 162 -5526 0
-66 -162 -5526 0
-66 162 5526 0
66 -162 5526 0
67 163 -5527 0
-67 -163 -5527 0
-67 163 5527 0
67 -163 5527 0
68 164 -5528 0
-68 -164 -5528 0
-68 164 5528 0
68 -164 5528 0
69 165 -5529 0
-69 -165 -5529 0
-69 165 5529 0
69 -165 5529 0
70 166 -5530 0
-70 -166 -5530 0
-70 166 5530 0
70 -166 5530 0
71 167 -5531 0
-71 -167 -5531 0
-71 167 5531 0
71 -167 5531 0
72 168 -5532 0
-72 -168 -5532 0
-72 168 5532 0
72 -168 5532 0
5509 5510 5511 5512 5513 5514 5515 5516 5517 5518 5519 5520 5521 5522 5523 5524 5525 5526 5527 5528 5529 5530 5531 5532 0
49 169 -5533 0
-49 -169 -5533 0
-49 169 5533 0
49 -169 5533 0
50 170 -5534 0
-50 -170 -5534 0
-50 170 5534 0
50 -170 5534 0
51 171 -5535 0
-51 -171 -5535 0
-51 171 5535 0
51 -171 5535 0
52 172 -5536 0
-52 -172 -5536 0
-52 172 5536 0
52 -172 5536 0
53 173 -5537 0
-53 -173 -5537 0
-53 173 5537 0
53 -173 5537 0
54 174 -5538 0
-54 -174 -5538 0
-54 174 5538 0
54 -174 5538 0
55 175 -5539 0
-55 -175 -5539 0
-55 175 5539 0
55 -175 5539 0
56 176 -5540 0
-56 -176 -5540 0
-56 176 5540 0
56 -176 5540 0
57 177 -5541 0
-57 -177 -5541 0
-57 177 5541 0
57 -177 5541 0
58 178 -5542 0
-58 -178 -5542 0
-58 178 5542 0
58 -178 5542 0
59 179 -5543 0
-59 -179 -5543 0
-59 179 5543 0
59 -179 5543 0
60 180 -5544 0
-60 -180 -5544 0
-60 180 5544 0
60 -180 5544 0
61 181 -5545 0
-61 -181 -5545 0
-61 181 5545 0
61 -181 5545 0
62 182 -5546 0
-62 -182 -5546 0
-62 182 5546 0
62 -182 5546 0
63 183 -5547 0
-63 -183 -5547 0
-63 183 5547 0
63 -183 5547 0
64 184 -5548 0
-64 -184 -5548 0
-64 184 5548 0
64 -184 5548 0
65 185 -5549 0
-65 -185 -5549 0
-65 185 5549 0
65 -185 5549 0
66 186 -5550 0
-66 -186 -5550 0
-66 186 5550 0
66 -186 5550 0
67 187 -5551 0
-67 -187 -5551 0
-67 187 5551 0
67 -187 5551 0
68 188 -5552 0
-68 -188 -5552 0
-68 188 5552 0
68 -188 5552 0
69 189 -5553 0
-69 -189 -5553 0
-69 189 5553 0
69 -189 5553 0
70 190 -5554 0
-70 -190 -5554 0
-70 190 5554 0
70 -190 5554 0
71 191 -5555 0
-71 -191 -5555 0
-71 191 5555 0
71 -191 5555 0
72 192 -5556 0
-72 -192 -5556 0
-72 192 5556 0
72 -192 5556 0
5533 5534 5535 5536 5537 5538 5539 5540 5541 5542 5543 5544 5545 5546 5547 5548 5549 5550 5551 5552 5553 5554 5555 5556 0
49 193 -5557 0
-49 -193 -5557 0
-49 193 5557 0
49 -193 5557 0
50 194 -5558 0
-50 -194 -5558 0
-50 194 5558 0
50 -194 5558 0
51 195 -5559 0
-51 -195 -5559 0
-51 195 5559 0
51 -195 5559 0
52 196 -5560 0
-52 -196 -5560 0
-52 196 5560 0
52 -196 5560 0
53 197 -5561 0
-53 -197 -5561 0
-53 197 5561 0
53 -197 5561 0
54 198 -5562 0
-54 -198 -5562 0
-54 198 5562 0
54 -198 5562 0
55 199 -5563 0
-55 -199 -5563 0
-55 199 5563 0
55 -199 5563 0
56 200 -5564 0
-56 -200 -5564 0
-56 200 5564 0
56 -200 5564 0
57 201 -5565 0
-57 -201 -5565 0
-57 201 5565 0
57 -201 5565 0
58 202 -5566 0
-58 -202 -5566 0
-58 202 5566 0
58 -202 5566 0
59 203 -5567 0
-59 -203 -5567 0
-59 203 5567 0
59 -203 5567 0
60 204 -5568 0
-60 -204 -5568 0
-60 204 5568 0
60 -204 5568 0
61 205 -5569 0
-61 -205 -5569 0
-61 205 5569 0
61 -205 5569 0
62 206 -5570 0
-62 -206 -5570 0
-62 206 5570 0
62 -206 5570 0
63 207 -5571 0
-63 -207 -5571 0
-63 207 5571 0
63 -207 5571 0
64 208 -5572 0
-64 -208 -5572 0
-64 208 5572 0
64 -208 5572 0
65 209 -5573 0
-65 -209 -5573 0
-65 209 5573 0
65 -209 5573 0
66 210 -5574 0
-66 -210 -5574 0
-66 210 5574 0
66 -210 5574 0
67 211 -5575 0
-67 -211 -5575 0
-67 211 5575 0
67 -211 5575 0
68 212 -5576 0
-68 -212 -5576 0
-68 212 5576 0
68 -212 5576 0
69 213 -5577 0
-69 -213 -5577 0
-69 213 5577 0
69 -213 5577 0
70 214 -5578 0
-70 -214 -5578 0
-70 214 5578 0
70 -214 5578 0
71 215 -5579 0
-71 -215 -5579 0
-71 215 5579 0
71 -215 5579 0
72 216 -5580 0
-72 -216 -5580 0
-72 216 5580 0
72 -216 5580 0
5557 5558 5559 5560 5561 5562 5563 5564 5565 5566 5567 5568 5569 5570 5571 5572 5573 5574 5575 5576 5577 5578 5579 5580 0
73 97 -5581 0
-73 -97 -5581 0
-73 97 5581 0
73 -97 5581 0
74 98 -5582 0
-74 -98 -5582 0
-74 98 5582 0
74 -98 5582 0
75 99 -5583 0
-75 -99 -5583 0
-75 99 5583 0
75 -99 5583 0
76 100 -5584 0
-76 -100 -5584 0
-76 100 5584 0
76 -100 5584 0
77 101 -5585 0
-77 -101 -5585 0
-77 101 5585 0
77 -101 5585 0
78 102 -5586 0
-78 -102 -5586 0
-78 102 5586 0
78 -102 5586 0
79 103 -5587 0
-79 -103 -5587 0
-79 103 5587 0
79 -103 5587 0
80 104 -5588 0
-80 -104 -5588 0
-80 104 5588 0
80 -104 5588 0
81 105 -5589 0
-81 -105 -5589 0
-81 105 5589 0
81 -105 5589 0
82 106 -5590 0
-82 -106 -5590 0
-82 106 5590 0
82 -106 5590 0
83 107 -5591 0
-83 -107 -5591 0
-83 107 5591 0
83 -107 5591 0
84 108 -5592 0
-84 -108 -5592 0
-84 108 5592 0
84 -108 5592 0
85 109 -5593 0
-85 -109 -5593 0
-85 109 5593 0
85 -109 5593 0
86 110 -5594 0
-86 -110 -5594 0
-86 110 5594 0
86 -110 5594 0
87 111 -5595 0
-87 -111 -5595 0
-87 111 5595 0
87 -111 5595 0
88 112 -5596 0
-88 -112 -5596 0
-88 112 5596 0
88 -112 5596 0
89 113 -5597 0
-89 -113 -5597 0
-89 113 5597 0
89 -113 5597 0
90 114 -5598 0
-90 -114 -5598 0
-90 114 5598 0
90 -114 5598 0
91 115 -5599 0
-91 -115 -5599 0
-91 115 5599 0
91 -115 5599 0
92 116 -5600 0
-92 -116 -5600 0
-92 116 5600 0
92 -116 5600 0
93 117 -5601 0
-93 -117 -5601 0
-93 117 5601 0
93 -117 5601 0
94 118 -5602 0
-94 -118 -5602 0
-94 118 5602 0
94 -118 5602 0
95 119 -5603 0
-95 -119 -5603 0
-95 119 5603 0
95 -119 5603 0
96 120 -5604 0
-96 -120 -5604 0
-96 120 5604 0
96 -120 5604 0
5581 5582 5583 5584 5585 5586 5587 5588 5589 5590 5591 5592 5593 5594 5595 5596 5597 5598 5599 5600 5601 5602 5603 5604 0
73 121 -5605 0
-73 -121 -5605 0
-73 121 5605 0
73 -121 5605 0
74 122 -5606 0
-74 -122 -5606 0
-74 122 5606 0
74 -122 5606 0
75 123 -5607 0
-75 -123 -5607 0
-75 123 5607 0
75 -123 5607 0
76 124 -5608 0
-76 -124 -5608 0
-76 124 5608 0
76 -124 5608 0
77 125 -5609 0
-77 -125 -5609 0
-77 125 5609 0
77 -125 5609 0
78 126 -5610 0
-78 -126 -5610 0
-78 126 5610 0
78 -126 5610 0
79 127 -5611 0
-79 -127 -5611 0
-79 127 5611 0
79 -127 5611 0
80 128 -5612 0
-80 -128 -5612 0
-80 128 5612 0
80 -128 5612 0
81 129 -5613 0
-81 -129 -5613 0
-81 129 5613 0
81 -129 5613 0
82 130 -5614 0
-82 -130 -5614 0
-82 130 5614 0
82 -130 5614 0
83 131 -5615 0
-83 -131 -5615 0
-83 131 5615 0
83 -131 5615 0
84 132 -5616 0
-84 -132 -5616 0
-84 132 5616 0
84 -132 5616 0
85 133 -5617 0
-85 -133 -5617 0
-85 133 5617 0
85 -133 5617 0
86 134 -5618 0
-86 -134 -5618 0
-86 134 5618 0
86 -134 5618 0
87 135 -5619 0
-87 -135 -5619 0
-87 135 5619 0
87 -135 5619 0
88 136 -5620 0
-88 -136 -5620 0
-88 136 5620 0
88 -136 5620 0
89 137 -5621 0
-89 -137 -5621 0
-89 137 5621 0
89 -137 5621 0
90 138 -5622 0
-90 -138 -5622 0
-90 138 5622 0
90 -138 5622 0
91 139 -5623 0
-91 -139 -5623 0
-91 139 5623 0
91 -139 5623 0
92 140 -5624 0
-92 -140 -5624 0
-92 140 5624 0
92 -140 5624 0
93 141 -5625 0
-93 -141 -5625 0
-93 141 5625 0
93 -141 5625 0
94 142 -5626 0
-94 -142 -5626 0
-94 142 5626 0
94 -142 5626 0
95 143 -5627 0
-95 -143 -5627 0
-95 143 5627 0
95 -143 5627 0
96 144 -5628 0
-96 -144 -5628 0
-96 144 5628 0
96 -144 5628 0
5605 5606 5607 5608 5609 5610 5611 5612 5613 5614 5615 5616 5617 5618 5619 5620 5621 5622 5623 5624 5625 5626 5627 5628 0
73 145 -5629 0
-73 -145 -5629 0
-73 145 5629 0
73 -145 5629 0
74 146 -5630 0
-74 -146 -5630 0
-74 146 5630 0
74 -146 5630 0
75 147 -5631 0
-75 -147 -5631 0
-75 147 5631 0
75 -147 5631 0
76 148 -5632 0
-76 -148 -5632 0
-76 148 5632 0
76 -148 5632 0
77 149 -5633 0
-77 -149 -5633 0
-77 149 5633 0
77 -149 5633 0
78 150 -5634 0
-78 -150 -5634 0
-78 150 5634 0
78 -150 5634 0
79 151 -5635 0
-79 -151 -5635 0
-79 151 5635 0
79 -151 5635 0
80 152 -5636 0
-80 -152 -5636 0
-80 152 5636 0
80 -152 5636 0
81 153 -5637 0
-81 -153 -5637 0
-81 153 5637 0
81 -153 5637 0
82 154 -5638 0
-82 -154 -5638 0
-82 154 5638 0
82 -154 5638 0
83 155 -5639 0
-83 -155 -5639 0
-83 155 5639 0
83 -155 5639 0
84 156 -5640 0
-84 -156 -5640 0
-84 156 5640 0
84 -156 5640 0
85 157 -5641 0
-85 -157 -5641 0
-85 157 5641 0
85 -157 5641 0
86 158 -5642 0
-86 -158 -5642 0
-86 158 5642 0
86 -158 5642 0
87 159 -5643 0
-87 -159 -5643 0
-87 159 5643 0
87 -159 5643 0
88 160 -5644 0
-88 -160 -5644 0
-88 160 5644 0
88 -160 5644 0
89 161 -5645 0
-89 -161 -5645 0
-89 161 5645 0
89 -161 5645 0
90 162 -5646 0
-90 -162 -5646 0
-90 162 5646 0
90 -162 5646 0
91 163 -5647 0
-91 -163 -5647 0
-91 163 5647 0
91 -163 5647 0
92 164 -5648 0
-92 -164 -5648 0
-92 164 5648 0
92 -164 5648 0
93 165 -5649 0
-93 -165 -5649 0
-93 165 5649 0
93 -165 5649 0
94 166 -5650 0
-94 -166 -5650 0
-94 166 5650 0
94 -166 5650 0
95 167 -5651 0
-95 -167 -5651 0
-95 167 5651 0
95 -167 5651 0
96 168 -5652 0
-96 -168 -5652 0
-96 168 5652 0
96 -168 5652 0
5629 5630 5631 5632 5633 5634 5635 5636 5637 5638 5639 5640 5641 5642 5643 5644 5645 5646 5647 5648 5649 5650 5651 5652 0
73 169 -5653 0
-73 -169 -5653 0
-73 169 5653 0
73 -169 5653 0
74 170 -5654 0
-74 -170 -5654 0
-74 170 5654 0
74 -170 5654 0
75 171 -5655 0
-75 -171 -5655 0
-75 171 5655 0
75 -171 5655 0
76 172 -5656 0
-76 -172 -5656 0
-76 172 5656 0
76 -172 5656 0
77 173 -5657 0
-77 -173 -5657 0
-77 173 5657 0
77 -173 5657 0
78 174 -5658 0
-78 -174 -5658 0
-78 174 5658 0
78 -174 5658 0
79 175 -5659 0
-79 -175 -5659 0
-79 175 5659 0
79 -175 5659 0
80 176 -5660 0
-80 -176 -5660 0
-80 176 5660 0
80 -176 5660 0
81 177 -5661 0
-81 -177 -5661 0
-81 177 5661 0
81 -177 5661 0
82 178 -5662 0
-82 -178 -5662 0
-82 178 5662 0
82 -178 5662 0
83 179 -5663 0
-83 -179 -5663 0
-83 179 5663 0
83 -179 5663 0
84 180 -5664 0
-84 -180 -5664 0
-84 180 5664 0
84 -180 5664 0
85 181 -5665 0
-85 -181 -5665 0
-85 181 5665 0
85 -181 5665 0
86 182 -5666 0
-86 -182 -5666 0
-86 182 5666 0
86 -182 5666 0
87 183 -5667 0
-87 -183 -5667 0
-87 183 5667 0
87 -183 5667 0
88 184 -5668 0
-88 -184 -5668 0
-88 184 5668 0
88 -184 5668 0
89 185 -5669 0
-89 -185 -5669 0
-89 185 5669 0
89 -185 5669 0
90 186 -5670 0
-90 -186 -5670 0
-90 186 5670 0
90 -186 5670 0
91 187 -5671 0
-91 -187 -5671 0
-91 187 5671 0
91 -187 5671 0
92 188 -5672 0
-92 -188 -5672 0
-92 188 5672 0
92 -188 5672 0
93 189 -5673 0
-93 -189 -5673 0
-93 189 5673 0
93 -189 5673 0
94 190 -5674 0
-94 -190 -5674 0
-94 190 5674 0
94 -190 5674 0
95 191 -5675 0
-95 -191 -5675 0
-95 191 5675 0
95 -191 5675 0
96 192 -5676 0
-96 -192 -5676 0
-96 192 5676 0
96 -192 5676 0
5653 5654 5655 5656 5657 5658 5659 5660 5661 5662 5663 5664 5665 5666 5667 5668 5669 5670 5671 5672 5673 5674 5675 5676 0
73 193 -5677 0
-73 -193 -5677 0
-73 193 5677 0
73 -193 5677 0
74 194 -5678 0
-74 -194 -5678 0
-74 194 5678 0
74 -194 5678 0
75 195 -5679 0
-75 -195 -5679 0
-75 195 5679 0
75 -195 5679 0
76 196 -5680 0
-76 -196 -5680 0
-76 196 5680 0
76 -196 5680 0
77 197 -5681 0
-77 -197 -5681 0
-77 197 5681 0
77 -197 5681 0
78 198 -5682 0
-78 -198 -5682 0
-78 198 5682 0
78 -198 5682 0
79 199 -5683 0
-79 -199 -5683 0
-79 199 5683 0
79 -199 5683 0
80 200 -5684 0
-80 -200 -5684 0
-80 200 5684 0
80 -200 5684 0
81 201 -5685 0
-81 -201 -5685 0
-81 201 5685 0
81 -201 5685 0
82 202 -5686 0
-82 -202 -5686 0
-82 202 5686 0
82 -202 5686 0
83 203 -5687 0
-83 -203 -5687 0
-83 203 5687 0
83 -203 5687 0
84 204 -5688 0
-84 -204 -5688 0
-84 204 5688 0
84 -204 5688 0
85 205 -5689 0
-85 -205 -5689 0
-85 205 5689 0
85 -205 5689 0
86 206 -5690 0
-86 -206 -5690 0
-86 206 5690 0
86 -206 5690 0
87 207 -5691 0
-87 -207 -5691 0
-87 207 5691 0
87 -207 5691 0
88 208 -5692 0
-88 -208 -5692 0
-88 208 5692 0
88 -208 5692 0
89 209 -5693 0
-89 -209 -5693 0
-89 209 5693 0
89 -209 5693 0
90 210 -5694 0
-90 -210 -5694 0
-90 210 5694 0
90 -210 5694 0
91 211 -5695 0
-91 -211 -5695 0
-91 211 5695 0
91 -211 5695 0
92 212 -5696 0
-92 -212 -5696 0
-92 212 5696 0
92 -212 5696 0
93 213 -5697 0
-93 -213 -5697 0
-93 213 5697 0
93 -213 5697 0
94 214 -5698 0
-94 -214 -5698 0
-94 214 5698 0
94 -214 5698 0
95 215 -5699 0
-95 -215 -5699 0
-95 215 5699 0
95 -215 5699 0
96 216 -5700 0
-96 -216 -5700 0
-96 216 5700 0
96 -216 5700 0
5677 5678 5679 5680 5681 5682 5683 5684 5685 5686 5687 5688 5689 5690 5691 5692 5693 5694 5695 5696 5697 5698 5699 5700 0
97 121 -5701 0
-97 -121 -5701 0
-97 121 5701 0
97 -121 5701 0
98 122 -5702 0
-98 -122 -5702 0
-98 122 5702 0
98 -122 5702 0
99 123 -5703 0
-99 -123 -5703 0
-99 123 5703 0
99 -123 5703 0
100 124 -5704 0
-100 -124 -5704 0
-100 124 5704 0
100 -124 5704 0
101 125 -5705 0
-101 -125 -5705 0
-101 125 5705 0
101 -125 5705 0
102 126 -5706 0
-102 -126 -5706 0
-102 126 5706 0
102 -126 5706 0
103 127 -5707 0
-103 -127 -5707 0
-103 127 5707 0
103 -127 5707 0
104 128 -5708 0
-104 -128 -5708 0
-104 128 5708 0
104 -128 5708 0
105 129 -5709 0
-105 -129 -5709 0
-105 129 5709 0
105 -129 5709 0
106 130 -5710 0
-106 -130 -5710 0
-106 130 5710 0
106 -130 5710 0
107 131 -5711 0
-107 -131 -5711 0
-107 131 5711 0
107 -131 5711 0
108 132 -5712 0
-108 -132 -5712 0
-108 132 5712 0
108 -132 5712 0
109 133 -5713 0
-109 -133 -5713 0
-109 133 5713 0
109 -133 5713 0
110 134 -5714 0
-110 -134 -5714 0
-110 134 5714 0
110 -134 5714 0
111 135 -5715 0
-111 -135 -5715 0
-111 135 5715 0
111 -135 5715 0
112 136 -5716 0
-112 -136 -5716 0
-112 136 5716 0
112 -136 5716 0
113 137 -5717 0
-113 -137 -5717 0
-113 137 5717 0
113 -137 5717 0
114 138 -5718 0
-114 -138 -5718 0
-114 138 5718 0
114 -138 5718 0
115 139 -5719 0
-115 -139 -5719 0
-115 139 5719 0
115 -139 5719 0
116 140 -5720 0
-116 -140 -5720 0
-116 140 5720 0
116 -140 5720 0
117 141 -5721 0
-117 -141 -5721 0
-117 141 5721 0
117 -141 5721 0
118 142 -5722 0
-118 -142 -5722 0
-118 142 5722 0
118 -142 5722 0
119 143 -5723 0
-119 -143 -5723 0
-119 143 5723 0
119 -143 5723 0
120 144 -5724 0
-120 -144 -5724 0
-120 144 5724 0
120 -144 5724 0
5701 5702 5703 5704 5705 5706 5707 5708 5709 5710 5711 5712 5713 5714 5715 5716 5717 5718 5719 5720 5721 5722 5723 5724 0
97 145 -5725 0
-97 -145 -5725 0
-97 145 5725 0
97 -145 5725 0
98 146 -5726 0
-98 -146 -5726 0
-98 146 5726 0
98 -146 5726 0
99 147 -5727 0
-99 -147 -5727 0
-99 147 5727 0
99 -147 5727 0
100 148 -5728 0
-100 -148 -5728 0
-100 148 5728 0
100 -148 5728 0
101 149 -5729 0
-101 -149 -5729 0
-101 149 5729 0
101 -149 5729 0
102 150 -5730 0
-102 -150 -5730 0
-102 150 5730 0
102 -150 5730 0
103 151 -5731 0
-103 -151 -5731 0
-103 151 5731 0
103 -151 5731 0
104 152 -5732 0
-104 -152 -5732 0
-104 152 5732 0
104 -152 5732 0
105 153 -5733 0
-105 -153 -5733 0
-105 153 5733 0
105 -153 5733 0
106 154 -5734 0
-106 -154 -5734 0
-106 154 5734 0
106 -154 5734 0
107 155 -5735 0
-107 -155 -5735 0
-107 155 5735 0
107 -155 5735 0
108 156 -5736 0
-108 -156 -5736 0
-108 156 5736 0
108 -156 5736 0
109 157 -5737 0
-109 -157 -5737 0
-109 157 5737 0
109 -157 5737 0
110 158 -5738 0
-110 -158 -5738 0
-110 158 5738 0
110 -158 5738 0
111 159 -5739 0
-111 -159 -5739 0
-111 159 5739 0
111 -159 5739 0
112 160 -5740 0
-112 -160 -5740 0
-112 160 5740 0
112 -160 5740 0
113 161 -5741 0
-113 -161 -5741 0
-113 161 5741 0
113 -161 5741 0
114 162 -5742 0
-114 -162 -5742 0
-114 162 5742 0
114 -162 5742 0
115 163 -5743 0
-115 -163 -5743 0
-115 163 5743 0
115 -163 5743 0
116 164 -5744 0
-116 -164 -5744 0
-116 164 5744 0
116 -164 5744 0
117 165 -5745 0
-117 -165 -5745 0
-117 165 5745 0
117 -165 5745 0
118 166 -5746 0
-118 -166 -5746 0
-118 166 5746 0
118 -166 5746 0
119 167 -5747 0
-119 -167 -5747 0
-119 167 5747 0
119 -167 5747 0
120 168 -5748 0
-120 -168 -5748 0
-120 168 5748 0
120 -168 5748 0
5725 5726 5727 5728 5729 5730 5731 5732 5733 5734 5735 5736 5737 5738 5739 5740 5741 5742 5743 5744 5745 5746 5747 5748 0
97 169 -5749 0
-97 -169 -5749 0
-97 169 5749 0
97 -169 5749 0
98 170 -5750 0
-98 -170 -5750 0
-98 170 5750 0
98 -170 5750 0
99 171 -5751 0
-99 -171 -5751 0
-99 171 5751 0
99 -171 5751 0
100 172 -5752 0
-100 -172 -5752 0
-100 172 5752 0
100 -172 5752 0
101 173 -5753 0
-101 -173 -5753 0
-101 173 5753 0
101 -173 5753 0
102 174 -5754 0
-102 -174 -5754 0
-102 174 5754 0
102 -174 5754 0
103 175 -5755 0
-103 -175 -5755 0
-103 175 5755 0
103 -175 5755 0
104 176 -5756 0
-104 -176 -5756 0
-104 176 5756 0
104 -176 5756 0
105 177 -5757 0
-105 -177 -5757 0
-105 177 5757 0
105 -177 5757 0
106 178 -5758 0
-106 -178 -5758 0
-106 178 5758 0
106 -178 5758 0
107 179 -5759 0
-107 -179 -5759 0
-107 179 5759 0
107 -179 5759 0
108 180 -5760 0
-108 -180 -5760 0
-108 180 5760 0
108 -180 5760 0
109 181 -5761 0
-109 -181 -5761 0
-109 181 5761 0
109 -181 5761 0
110 182 -5762 0
-110 -182 -5762 0
-110 182 5762 0
110 -182 5762 0
111 183 -5763 0
-111 -183 -5763 0
-111 183 5763 0
111 -183 5763 0
112 184 -5764 0
-112 -184 -5764 0
-112 184 5764 0
112 -184 5764 0
113 185 -5765 0
-113 -185 -5765 0
-113 185 5765 0
113 -185 5765 0
114 186 -5766 0
-114 -186 -5766 0
-114 186 5766 0
114 -186 5766 0
115 187 -5767 0
-115 -187 -5767 0
-115 187 5767 0
115 -187 5767 0
116 188 -5768 0
-116 -188 -5768 0
-116 188 5768 0
116 -188 5768 0
117 189 -5769 0
-117 -189 -5769 0
-117 189 5769 0
117 -189 5769 0
118 190 -5770 0
-118 -190 -5770 0
-118 190 5770 0
118 -190 5770 0
119 191 -5771 0
-119 -191 -5771 0
-119 191 5771 0
119 -191 5771 0
120 192 -5772 0
-120 -192 -5772 0
-120 192 5772 0
120 -192 5772 0
5749 5750 5751 5752 5753 5754 5755 5756 5757 5758 5759 5760 5761 5762 5763 5764 5765 5766 5767 5768 5769 5770 5771 5772 0
97 193 -5773 0
-97 -193 -5773 0
-97 193 5773 0
97 -193 5773 0
98 194 -5774 0
-98 -194 -5774 0
-98 194 5774 0
98 -194 5774 0
99 195 -5775 0
-99 -195 -5775 0
-99 195 5775 0
99 -195 5775 0
100 196 -5776 0
-100 -196 -5776 0
-100 196 5776 0
100 -196 5776 0
101 197 -5777 0
-101 -197 -5777 0
-101 197 5777 0
101 -197 5777 0
102 198 -5778 0
-102 -198 -5778 0
-102 198 5778 0
102 -198 5778 0
103 199 -5779 0
-103 -199 -5779 0
-103 199 5779 0
103 -199 5779 0
104 200 -5780 0
-104 -200 -5780 0
-104 200 5780 0
104 -200 5780 0
105 201 -5781 0
-105 -201 -5781 0
-105 201 5781 0
105 -201 5781 0
106 202 -5782 0
-106 -202 -5782 0
-106 202 5782 0
106 -202 5782 0
107 203 -5783 0
-107 -203 -5783 0
-107 203 5783 0
107 -203 5783 0
108 204 -5784 0
-108 -204 -5784 0
-108 204 5784 0
108 -204 5784 0
109 205 -5785 0
-109 -205 -5785 0
-109 205 5785 0
109 -205 5785 0
110 206 -5786 0
-110 -206 -5786 0
-110 206 5786 0
110 -206 5786 0
111 207 -5787 0
-111 -207 -5787 0
-111 207 5787 0
111 -207 5787 0
112 208 -5788 0
-112 -208 -5788 0
-112 208 5788 0
112 -208 5788 0
113 209 -5789 0
-113 -209 -5789 0
-113 209 5789 0
113 -209 5789 0
114 210 -5790 0
-114 -210 -5790 0
-114 210 5790 0
114 -210 5790 0
115 211 -5791 0
-115 -211 -5791 0
-115 211 5791 0
115 -211 5791 0
116 212 -5792 0
-116 -212 -5792 0
-116 212 5792 0
116 -212 5792 0
117 213 -5793 0
-117 -213 -5793 0
-117 213 5793 0
117 -213 5793 0
118 214 -5794 0
-118 -214 -5794 0
-118 214 5794 0
118 -214 5794 0
119 215 -5795 0
-119 -215 -5795 0
-119 215 5795 0
119 -215 5795 0
120 216 -5796 0
-120 -216 -5796 0
-120 216 5796 0
120 -216 5796 0
5773 5774 5775 5776 5777 5778 5779 5780 5781 5782 5783 5784 5785 5786 5787 5788 5789 5790 5791 5792 5793 5794 5795 5796 0
121 145 -5797 0
-121 -145 -5797 0
-121 145 5797 0
121 -145 5797 0
122 146 -5798 0
-122 -146 -5798 0
-122 146 5798 0
122 -146 5798 0
123 147 -5799 0
-123 -147 -5799 0
-123 147 5799 0
123 -147 5799 0
124 148 -5800 0
-124 -148 -5800 0
-124 148 5800 0
124 -148 5800 0
125 149 -5801 0
-125 -149 -5801 0
-125 149 5801 0
125 -149 5801 0
126 150 -5802 0
-126 -150 -5802 0
-126 150 5802 0
126 -150 5802 0
127 151 -5803 0
-127 -151 -5803 0
-127 151 5803 0
127 -151 5803 0
128 152 -5804 0
-128 -152 -5804 0
-128 152 5804 0
128 -152 5804 0
129 153 -5805 0
-129 -153 -5805 0
-129 153 5805 0
129 -153 5805 0
130 154 -5806 0
-130 -154 -5806 0
-130 154 5806 0
130 -154 5806 0
131 155 -5807 0
-131 -155 -5807 0
-131 155 5807 0
131 -155 5807 0
132 156 -5808 0
-132 -156 -5808 0
-132 156 5808 0
132 -156 5808 0
133 157 -5809 0
-133 -157 -5809 0
-133 157 5809 0
133 -157 5809 0
134 158 -5810 0
-134 -158 -5810 0
-134 158 5810 0
134 -158 5810 0
135 159 -5811 0
-135 -159 -5811 0
-135 159 5811 0
135 -159 5811 0
136 160 -5812 0
-136 -160 -5812 0
-136 160 5812 0
136 -160 5812 0
137 161 -5813 0
-137 -161 -5813 0
-137 161 5813 0
137 -161 5813 0
138 162 -5814 0
-138 -162 -5814 0
-138 162 5814 0
138 -162 5814 0
139 163 -5815 0
-139 -163 -5815 0
-139 163 5815 0
139 -163 5815 0
140 164 -5816 0
-140 -164 -5816 0
-140 164 5816 0
140 -164 5816 0
141 165 -5817 0
-141 -165 -5817 0
-141 165 5817 0
141 -165 5817 0
142 166 -5818 0
-142 -166 -5818 0
-142 166 5818 0
142 -166 5818 0
143 167 -5819 0
-143 -167 -5819 0
-143 167 5819 0
143 -167 5819 0
144 168 -5820 0
-144 -168 -5820 0
-144 168 5820 0
144 -168 5820 0
5797 5798 5799 5800 5801 5802 5803 5804 5805 5806 5807 5808 5809 5810 5811 5812 5813 5814 5815 5816 5817 5818 5819 5820 0
121 169 -5821 0
-121 -169 -5821 0
-121 169 5821 0
121 -169 5821 0
122 170 -5822 0
-122 -170 -5822 0
-122 170 5822 0
122 -170 5822 0
123 171 -5823 0
-123 -171 -5823 0
-123 171 5823 0
123 -171 5823 0
124 172 -5824 0
-124 -172 -5824 0
-124 172 5824 0
124 -172 5824 0
125 173 -5825 0
-125 -173 -5825 0
-125 173 5825 0
125 -173 5825 0
126 174 -5826 0
-126 -174 -5826 0
-126 174 5826 0
126 -174 5826 0
127 175 -5827 0
-127 -175 -5827 0
-127 175 5827 0
127 -175 5827 0
128 176 -5828 0
-128 -176 -5828 0
-128 176 5828 0
128 -176 5828 0
129 177 -5829 0
-129 -177 -5829 0
-129 177 5829 0
129 -177 5829 0
130 178 -5830 0
-130 -178 -5830 0
-130 178 5830 0
130 -178 5830 0
131 179 -5831 0
-131 -179 -5831 0
-131 179 5831 0
131 -179 5831 0
132 180 -5832 0
-132 -180 -5832 0
-132 180 5832 0
132 -180 5832 0
133 181 -5833 0
-133 -181 -5833 0
-133 181 5833 0
133 -181 5833 0
134 182 -5834 0
-134 -182 -5834 0
-134 182 5834 0
134 -182 5834 0
135 183 -5835 0
-135 -183 -5835 0
-135 183 5835 0
135 -183 5835 0
136 184 -5836 0
-136 -184 -5836 0
-136 184 5836 0
136 -184 5836 0
137 185 -5837 0
-137 -185 -5837 0
-137 185 5837 0
137 -185 5837 0
138 186 -5838 0
-138 -186 -5838 0
-138 186 5838 0
138 -186 5838 0
139 187 -5839 0
-139 -187 -5839 0
-139 187 5839 0
139 -187 5839 0
140 188 -5840 0
-140 -188 -5840 0
-140 188 5840 0
140 -188 5840 0
141 189 -5841 0
-141 -189 -5841 0
-141 189 5841 0
141 -189 5841 0
142 190 -5842 0
-142 -190 -5842 0
-142 190 5842 0
142 -190 5842 0
143 191 -5843 0
-143 -191 -5843 0
-143 191 5843 0
143 -191 5843 0
144 192 -5844 0
-144 -192 -5844 0
-144 192 5844 0
144 -192 5844 0
5821 5822 5823 5824 5825 5826 5827 5828 5829 5830 5831 5832 5833 5834 5835 5836 5837 5838 5839 5840 5841 5842 5843 5844 0
121 193 -5845 0
-121 -193 -5845 0
-121 193 5845 0
121 -193 5845 0
122 194 -5846 0
-122 -194 -5846 0
-122 194 5846 0
122 -194 5846 0
123 195 -5847 0
-123 -195 -5847 0
-123 195 5847 0
123 -195 5847 0
124 196 -5848 0
-124 -196 -5848 0
-124 196 5848 0
124 -196 5848 0
125 197 -5849 0
-125 -197 -5849 0
-125 197 5849 0
125 -197 5849 0
126 198 -5850 0
-126 -198 -5850 0
-126 198 5850 0
126 -198 5850 0
127 199 -5851 0
-127 -199 -5851 0
-127 199 5851 0
127 -199 5851 0
128 200 -5852 0
-128 -200 -5852 0
-128 200 5852 0
128 -200 5852 0
129 201 -5853 0
-129 -201 -5853 0
-129 201 5853 0
129 -201 5853 0
130 202 -5854 0
-130 -202 -5854 0
-130 202 5854 0
130 -202 5854 0
131 203 -5855 0
-131 -203 -5855 0
-131 203 5855 0
131 -203 5855 0
132 204 -5856 0
-132 -204 -5856 0
-132 204 5856 0
132 -204 5856 0
133 205 -5857 0
-133 -205 -5857 0
-133 205 5857 0
133 -205 5857 0
134 206 -5858 0
-134 -206 -5858 0
-134 206 5858 0
134 -206 5858 0
135 207 -5859 0
-135 -207 -5859 0
-135 207 5859 0
135 -207 5859 0
136 208 -5860 0
-136 -208 -5860 0
-136 208 5860 0
136 -208 5860 0
137 209 -5861 0
-137 -209 -5861 0
-137 209 5861 0
137 -209 5861 0
138 210 -5862 0
-138 -210 -5862 0
-138 210 5862 0
138 -210 5862 0
139 211 -5863 0
-139 -211 -5863 0
-139 211 5863 0
139 -211 5863 0
140 212 -5864 0
-140 -212 -5864 0
-140 212 5864 0
140 -212 5864 0
141 213 -5865 0
-141 -213 -5865 0
-141 213 5865 0
141 -213 5865 0
142 214 -5866 0
-142 -214 -5866 0
-142 214 5866 0
142 -214 5866 0
143 215 -5867 0
-143 -215 -5867 0
-143 215 5867 0
143 -215 5867 0
144 216 -5868 0
-144 -216 -5868 0
-144 216 5868 0
144 -216 5868 0
5845 5846 5847 5848 5849 5850 5851 5852 5853 5854 5855 5856 5857 5858 5859 5860 5861 5862 5863 5864 5865 5866 5867 5868 0
145 169 -5869 0
-145 -169 -5869 0
-145 169 5869 0
145 -169 5869 0
146 170 -5870 0
-146 -170 -5870 0
-146 170 5870 0
146 -170 5870 0
147 171 -5871 0
-147 -171 -5871 0
-147 171 5871 0
147 -171 5871 0
148 172 -5872 0
-148 -172 -5872 0
-148 172 5872 0
148 -172 5872 0
149 173 -5873 0
-149 -173 -5873 0
-149 173 5873 0
149 -173 5873 0
150 174 -5874 0
-150 -174 -5874 0
-150 174 5874 0
150 -174 5874 0
151 175 -5875 0
-151 -175 -5875 0
-151 175 5875 0
151 -175 5875 0
152 176 -5876 0
-152 -176 -5876 0
-152 176 5876 0
152 -176 5876 0
153 177 -5877 0
-153 -177 -5877 0
-153 177 5877 0
153 -177 5877 0
154 178 -5878 0
-154 -178 -5878 0
-154 178 5878 0
154 -178 5878 0
155 179 -5879 0
-155 -179 -5879 0
-155 179 5879 0
155 -179 5879 0
156 180 -5880 0
-156 -180 -5880 0
-156 180 5880 0
156 -180 5880 0
157 181 -5881 0
-157 -181 -5881 0
-157 181 5881 0
157 -181 5881 0
158 182 -5882 0
-158 -182 -5882 0
-158 182 5882 0
158 -182 5882 0
159 183 -5883 0
-159 -183 -5883 0
-159 183 5883 0
159 -183 5883 0
160 184 -5884 0
-160 -184 -5884 0
-160 184 5884 0
160 -184 5884 0
161 185 -5885 0
-161 -185 -5885 0
-161 185 5885 0
161 -185 5885 0
162 186 -5886 0
-162 -186 -5886 0
-162 186 5886 0
162 -186 5886 0
163 187 -5887 0
-163 -187 -5887 0
-163 187 5887 0
163 -187 5887 0
164 188 -5888 0
-164 -188 -5888 0
-164 188 5888 0
164 -188 5888 0
165 189 -5889 0
-165 -189 -5889 0
-165 189 5889 0
165 -189 5889 0
166 190 -5890 0
-166 -190 -5890 0
-166 190 5890 0
166 -190 5890 0
167 191 -5891 0
-167 -191 -5891 0
-167 191 5891 0
167 -191 5891 0
168 192 -5892 0
-168 -192 -5892 0
-168 192 5892 0
168 -192 5892 0
5869 5870 5871 5872 5873 5874 5875 5876 5877 5878 5879 5880 5881 5882 5883 5884 5885 5886 5887 5888 5889 5890 5891 5892 0
145 193 -5893 0
-145 -193 -5893 0
-145 193 5893 0
145 -193 5893 0
146 194 -5894 0
-146 -194 -5894 0
-146 194 5894 0
146 -194 5894 0
147 195 -5895 0
-147 -195 -5895 0
-147 195 5895 0
147 -195 5895 0
148 196 -5896 0
-148 -196 -5896 0
-148 196 5896 0
148 -196 5896 0
149 197 -5897 0
-149 -197 -5897 0
-149 197 5897 0
149 -197 5897 0
150 198 -5898 0
-150 -198 -5898 0
-150 198 5898 0
150 -198 5898 0
151 199 -5899 0
-151 -199 -5899 0
-151 199 5899 0
151 -199 5899 0
152 200 -5900 0
-152 -200 -5900 0
-152 200 5900 0
152 -200 5900 0
153 201 -5901 0
-153 -201 -5901 0
-153 201 5901 0
153 -201 5901 0
154 202 -5902 0
-154 -202 -5902 0
-154 202 5902 0
154 -202 5902 0
155 203 -5903 0
-155 -203 -5903 0
-155 203 5903 0
155 -203 5903 0
156 204 -5904 0
-156 -204 -5904 0
-156 204 5904 0
156 -204 5904 0
157 205 -5905 0
-157 -205 -5905 0
-157 205 5905 0
157 -205 5905 0
158 206 -5906 0
-158 -206 -5906 0
-158 206 5906 0
158 -206 5906 0
159 207 -5907 0
-159 -207 -5907 0
-159 207 5907 0
159 -207 5907 0
160 208 -5908 0
-160 -208 -5908 0
-160 208 5908 0
160 -208 5908 0
161 209 -5909 0
-161 -209 -5909 0
-161 209 5909 0
161 -209 5909 0
162 210 -5910 0
-162 -210 -5910 0
-162 210 5910 0
162 -210 5910 0
163 211 -5911 0
-163 -211 -5911 0
-163 211 5911 0
163 -211 5911 0
164 212 -5912 0
-164 -212 -5912 0
-164 212 5912 0
164 -212 5912 0
165 213 -5913 0
-165 -213 -5913 0
-165 213 5913 0
165 -213 5913 0
166 214 -5914 0
-166 -214 -5914 0
-166 214 5914 0
166 -214 5914 0
167 215 -5915 0
-167 -215 -5915 0
-167 215 5915 0
167 -215 5915 0
168 216 -5916 0
-168 -216 -5916 0
-168 216 5916 0
168 -216 5916 0
5893 5894 5895 5896 5897 5898 5899 5900 5901 5902 5903 5904 5905 5906 5907 5908 5909 5910 5911 5912 5913 5914 5915 5916 0
169 193 -5917 0
-169 -193 -5917 0
-169 193 5917 0
169 -193 5917 0
170 194 -5918 0
-170 -194 -5918 0
-170 194 5918 0
170 -194 5918 0
171 195 -5919 0
-171 -195 -5919 0
-171 195 5919 0
171 -195 5919 0
172 196 -5920 0
-172 -196 -5920 0
-172 196 5920 0
172 -196 5920 0
173 197 -5921 0
-173 -197 -5921 0
-173 197 5921 0
173 -197 5921 0
174 198 -5922 0
-174 -198 -5922 0
-174 198 5922 0
174 -198 5922 0
175 199 -5923 0
-175 -199 -5923 0
-175 199 5923 0
175 -199 5923 0
176 200 -5924 0
-176 -200 -5924 0
-176 200 5924 0
176 -200 5924 0
177 201 -5925 0
-177 -201 -5925 0
-177 201 5925 0
177 -201 5925 0
178 202 -5926 0
-178 -202 -5926 0
-178 202 5926 0
178 -202 5926 0
179 203 -5927 0
-179 -203 -5927 0
-179 203 5927 0
179 -203 5927 0
180 204 -5928 0
-180 -204 -5928 0
-180 204 5928 0
180 -204 5928 0
181 205 -5929 0
-181 -205 -5929 0
-181 205 5929 0
181 -205 5929 0
182 206 -5930 0
-182 -206 -5930 0
-182 206 5930 0
182 -206 5930 0
183 207 -5931 0
-183 -207 -5931 0
-183 207 5931 0
183 -207 5931 0
184 208 -5932 0
-184 -208 -5932 0
-184 208 5932 0
184 -208 5932 0
185 209 -5933 0
-185 -209 -5933 0
-185 209 5933 0
185 -209 5933 0
186 210 -5934 0
-186 -210 -5934 0
-186 210 5934 0
186 -210 5934 0
187 211 -5935 0
-187 -211 -5935 0
-187 211 5935 0
187 -211 5935 0
188 212 -5936 0
-188 -212 -5936 0
-188 212 5936 0
188 -212 5936 0
189 213 -5937 0
-189 -213 -5937 0
-189 213 5937 0
189 -213 5937 0
190 214 -5938 0
-190 -214 -5938 0
-190 214 5938 0
190 -214 5938 0
191 215 -5939 0
-191 -215 -5939 0
-191 215 5939 0
191 -215 5939 0
192 216 -5940 0
-192 -216 -5940 0
-192 216 5940 0
192 -216 5940 0
5917 5918 5919 5920 5921 5922 5923 5924 5925 5926 5927 5928 5929 5930 5931 5932 5933 5934 5935 5936 5937 5938 5939 5940 0
-5967 0
-5968 0
-5969 0
5995 120 -6022 0
-5995 -120 -6022 0
-5995 120 6022 0
5995 -120 6022 0
5995 -6023 0
120 -6023 0
-5995 -120 6023 0
5994 119 -6025 0
-5994 -119 -6025 0
-5994 119 6025 0
5994 -119 6025 0
6025 6023 -6021 0
-6025 -6023 -6021 0
-6025 6023 6021 0
6025 -6023 6021 0
-5994 -119 6024 0
-119 -6023 6024 0
-5994 -6023 6024 0
5994 119 -6024 0
119 6023 -6024 0
5994 6023 -6024 0
5993 118 -6027 0
-5993 -118 -6027 0
-5993 118 6027 0
5993 -118 6027 0
6027 6024 -6020 0
-6027 -6024 -6020 0
-6027 6024 6020 0
6027 -6024 6020 0
-5993 -118 6026 0
-118 -6024 6026 0
-5993 -6024 6026 0
5993 118 -6026 0
118 6024 -6026 0
5993 6024 -6026 0
5992 117 -6029 0
-5992 -117 -6029 0
-5992 117 6029 0
5992 -117 6029 0
6029 6026 -6019 0
-6029 -6026 -6019 0
-6029 6026 6019 0
6029 -6026 6019 0
-5992 -117 6028 0
-117 -6026 6028 0
-5992 -6026 6028 0
5992 117 -6028 0
117 6026 -6028 0
5992 6026 -6028 0
5991 116 -6031 0
-5991 -116 -6031 0
-5991 116 6031 0
5991 -116 6031 0
6031 6028 -6018 0
-6031 -6028 -6018 0
-6031 6028 6018 0
6031 -6028 6018 0
-5991 -116 6030 0
-116 -6028 6030 0
-5991 -6028 6030 0
5991 116 -6030 0
116 6028 -6030 0
5991 6028 -6030 0
5990 115 -6033 0
-5990 -115 -6033 0
-5990 115 6033 0
5990 -115 6033 0
6033 6030 -6017 0
-6033 -6030 -6017 0
-6033 6030 6017 0
6033 -6030 6017 0
-5990 -115 6032 0
-115 -6030 6032 0
-5990 -6030 6032 0
5990 115 -6032 0
115 6030 -6032 0
5990 6030 -6032 0
5989 114 -6035 0
-5989 -114 -6035 0
-5989 114 6035 0
5989 -114 6035 0
6035 6032 -6016 0
-6035 -6032 -6016 0
-6035 6032 6016 0
6035 -6032 6016 0
-5989 -114 6034 0
-114 -6032 6034 0
-5989 -6032 6034 0
5989 114 -6034 0
114 6032 -6034 0
5989 6032 -6034 0
5988 113 -6037 0
-5988 -113 -6037 0
-5988 113 6037 0
5988 -113 6037 0
6037 6034 -6015 0
-6037 -6034 -6015 0
-6037 6034 6015 0
6037 -6034 6015 0
-5988 -113 6036 0
-113 -6034 6036 0
-5988 -6034 6036 0
5988 113 -6036 0
113 6034 -6036 0
5988 6034 -6036 0
5987 112 -6039 0
-5987 -112 -6039 0
-5987 112 6039 0
5987 -112 6039 0
6039 6036 -6014 0
-6039 -6036 -6014 0
-6039 6036 6014 0
6039 -6036 6014 0
-5987 -112 6038 0
-112 -6036 6038 0
-5987 -6036 6038 0
5987 112 -6038 0
112 6036 -6038 0
5987 6036 -6038 0
5986 111 -6041 0
-5986 -111 -6041 0
-5986 111 6041 0
5986 -111 6041 0
6041 6038 -6013 0
-6041 -6038 -6013 0
-6041 6038 6013 0
6041 -6038 6013 0
-5986 -111 6040 0
-111 -6038 6040 0
-5986 -6038 6040 0
5986 111 -6040 0
111 6038 -6040 0
5986 6038 -6040 0
5985 110 -6043 0
-5985 -110 -6043 0
-5985 110 6043 0
5985 -110 6043 0
6043 6040 -6012 0
-6043 -6040 -6012 0
-6043 6040 6012 0
6043 -6040 6012 0
-5985 -110 6042 0
-110 -6040 6042 0
-5985 -6040 6042 0
5985 110 -6042 0
110 6040 -6042 0
5985 6040 -6042 0
5984 109 -6045 0
-5984 -109 -6045 0
-5984 109 6045 0
5984 -109 6045 0
6045 6042 -6011 0
-6045 -6042 -6011 0
-6045 6042 6011 0
6045 -6042 6011 0
-5984 -109 6044 0
-109 -6042 6044 0
-5984 -6042 6044 0
5984 109 -6044 0
109 6042 -6044 0
5984 6042 -6044 0
5983 108 -6047 0
-5983 -108 -6047 0
-5983 108 6047 0
5983 -108 6047 0
6047 6044 -6010 0
-6047 -6044 -6010 0
-6047 6044 6010 0
6047 -6044 6010 0
-5983 -108 6046 0
-108 -6044 6046 0
-5983 -6044 6046 0
5983 108 -6046 0
108 6044 -6046 0
5983 6044 -6046 0
5982 107 -6049 0
-5982 -107 -6049 0
-5982 107 6049 0
5982 -107 6049 0
6049 6046 -6009 0
-6049 -6046 -6009 0
-6049 6046 6009 0
6049 -6046 6009 0
-5982 -107 6048 0
-107 -6046 6048 0
-5982 -6046 6048 0
5982 107 -6048 0
107 6046 -6048 0
5982 6046 -6048 0
5981 106 -6051 0
-5981 -106 -6051 0
-5981 106 6051 0
5981 -106 6051 0
6051 6048 -6008 0
-6051 -6048 -6008 0
-6051 6048 6008 0
6051 -6048 6008 0
-5981 -106 6050 0
-106 -6048 6050 0
-5981 -6048 6050 0
5981 106 -6050 0
106 6048 -6050 0
5981 6048 -6050 0
5980 105 -6053 0
-5980 -105 -6053 0
-5980 105 6053 0
5980 -105 6053 0
6053 6050 -6007 0
-6053 -6050 -6007 0
-6053 6050 6007 0
6053 -6050 6007 0
-5980 -105 6052 0
-105 -6050 6052 0
-5980 -6050 6052 0
5980 105 -6052 0
105 6050 -6052 0
5980 6050 -6052 0
5979 104 -6055 0
-5979 -104 -6055 0
-5979 104 6055 0
5979 -104 6055 0
6055 6052 -6006 0
-6055 -6052 -6006 0
-6055 6052 6006 0
6055 -6052 6006 0
-5979 -104 6054 0
-104 -6052 6054 0
-5979 -6052 6054 0
5979 104 -6054 0
104 6052 -6054 0
5979 6052 -6054 0
5978 103 -6057 0
-5978 -103 -6057 0
-5978 103 6057 0
5978 -103 6057 0
6057 6054 -6005 0
-6057 -6054 -6005 0
-6057 6054 6005 0
6057 -6054 6005 0
-5978 -103 6056 0
-103 -6054 6056 0
-5978 -6054 6056 0
5978 103 -6056 0
103 6054 -6056 0
5978 6054 -6056 0
5977 102 -6059 0
-5977 -102 -6059 0
-5977 102 6059 0
5977 -102 6059 0
6059 6056 -6004 0
-6059 -6056 -6004 0
-6059 6056 6004 0
6059 -6056 6004 0
-5977 -102 6058 0
-102 -6056 6058 0
-5977 -6056 6058 0
5977 102 -6058 0
102 6056 -6058 0
5977 6056 -6058 0
5976 101 -6061 0
-5976 -101 -6061 0
-5976 101 6061 0
5976 -101 6061 0
6061 6058 -6003 0
-6061 -6058 -6003 0
-6061 6058 6003 0
6061 -6058 6003 0
-5976 -101 6060 0
-101 -6058 6060 0
-5976 -6058 6060 0
5976 101 -6060 0
101 6058 -6060 0
5976 6058 -6060 0
5975 100 -6063 0
-5975 -100 -6063 0
-5975 100 6063 0
5975 -100 6063 0
6063 6060 -6002 0
-6063 -6060 -6002 0
-6063 6060 6002 0
6063 -6060 6002 0
-5975 -100 6062 0
-100 -6060 6062 0
-5975 -6060 6062 0
5975 100 -6062 0
100 6060 -6062 0
5975 6060 -6062 0
5974 99 -6065 0
-5974 -99 -6065 0
-5974 99 6065 0
5974 -99 6065 0
6065 6062 -6001 0
-6065 -6062 -6001 0
-6065 6062 6001 0
6065 -6062 6001 0
-5974 -99 6064 0
-99 -6062 6064 0
-5974 -6062 6064 0
5974 99 -6064 0
99 6062 -6064 0
5974 6062 -6064 0
5973 98 -6067 0
-5973 -98 -6067 0
-5973 98 6067 0
5973 -98 6067 0
6067 6064 -6000 0
-6067 -6064 -6000 0
-6067 6064 6000 0
6067 -6064 6000 0
-5973 -98 6066 0
-98 -6064 6066 0
-5973 -6064 6066 0
5973 98 -6066 0
98 6064 -6066 0
5973 6064 -6066 0
5972 97 -6069 0
-5972 -97 -6069 0
-5972 97 6069 0
5972 -97 6069 0
6069 6066 -5999 0
-6069 -6066 -5999 0
-6069 6066 5999 0
6069 -6066 5999 0
-5972 -97 6068 0
-97 -6066 6068 0
-5972 -6066 6068 0
5972 97 -6068 0
97 6066 -6068 0
5972 6066 -6068 0
5971 5969 -6071 0
-5971 -5969 -6071 0
-5971 5969 6071 0
5971 -5969 6071 0
6071 6068 -5998 0
-6071 -6068 -5998 0
-6071 6068 5998 0
6071 -6068 5998 0
-5971 -5969 6070 0
-5969 -6068 6070 0
-5971 -6068 6070 0
5971 5969 -6070 0
5969 6068 -6070 0
5971 6068 -6070 0
5970 5968 -6072 0
-5970 -5968 -6072 0
-5970 5968 6072 0
5970 -5968 6072 0
6072 6070 -5997 0
-6072 -6070 -5997 0
-6072 6070 5997 0
6072 -6070 5997 0
-5970 -5968 5996 0
-5968 -6070 5996 0
-5970 -6070 5996 0
5970 5968 -5996 0
5968 6070 -5996 0
5970 6070 -5996 0
-5996 5967 0
5996 -5967 0
-5997 5941 0
5997 -5941 0
-5998 5942 0
5998 -5942 0
-5999 5943 0
5999 -5943 0
-6000 5944 0
6000 -5944 0
-6001 5945 0
6001 -5945 0
-6002 5946 0
6002 -5946 0
-6003 5947 0
6003 -5947 0
-6004 5948 0
6004 -5948 0
-6005 5949 0
6005 -5949 0
-6006 5950 0
6006 -5950 0
-6007 5951 0
6007 -5951 0
-6008 5952 0
6008 -5952 0
-6009 5953 0
6009 -5953 0
-6010 5954 0
6010 -5954 0
-6011 5955 0
6011 -5955 0
-6012 5956 0
6012 -5956 0
-6013 5957 0
6013 -5957 0
-6014 5958 0
6014 -5958 0
-6015 5959 0
6015 -5959 0
-6016 5960 0
6016 -5960 0
-6017 5961 0
6017 -5961 0
-6018 5962 0
6018 -5962 0
-6019 5963 0
6019 -5963 0
-6020 5964 0
6020 -5964 0
-6021 5965 0
6021 -5965 0
-6022 5966 0
6022 -5966 0
24 216 -6097 0
-24 -216 -6097 0
-24 216 6097 0
24 -216 6097 0
24 -6098 0
216 -6098 0
-24 -216 6098 0
23 215 -6100 0
-23 -215 -6100 0
-23 215 6100 0
23 -215 6100 0
6100 6098 -6096 0
-6100 -6098 -6096 0
-6100 6098 6096 0
6100 -6098 6096 0
-23 -215 6099 0
-215 -6098 6099 0
-23 -6098 6099 0
23 215 -6099 0
215 6098 -6099 0
23 6098 -6099 0
22 214 -6102 0
-22 -214 -6102 0
-22 214 6102 0
22 -214 6102 0
6102 6099 -6095 0
-6102 -6099 -6095 0
-6102 6099 6095 0
6102 -6099 6095 0
-22 -214 6101 0
-214 -6099 6101 0
-22 -6099 6101 0
22 214 -6101 0
214 6099 -6101 0
22 6099 -6101 0
21 213 -6104 0
-21 -213 -6104 0
-21 213 6104 0
21 -213 6104 0
6104 6101 -6094 0
-6104 -6101 -6094 0
-6104 6101 6094 0
6104 -6101 6094 0
-21 -213 6103 0
-213 -6101 6103 0
-21 -6101 6103 0
21 213 -6103 0
213 6101 -6103 0
21 6101 -6103 0
20 212 -6106 0
-20 -212 -6106 0
-20 212 6106 0
20 -212 6106 0
6106 6103 -6093 0
-6106 -6103 -6093 0
-6106 6103 6093 0
6106 -6103 6093 0
-20 -212 6105 0
-212 -6103 6105 0
-20 -6103 6105 0
20 212 -6105 0
212 6103 -6105 0
20 6103 -6105 0
19 211 -6108 0
-19 -211 -6108 0
-19 211 6108 0
19 -211 6108 0
6108 6105 -6092 0
-6108 -6105 -6092 0
-6108 6105 6092 0
6108 -6105 6092 0
-19 -211 6107 0
-211 -6105 6107 0
-19 -6105 6107 0
19 211 -6107 0
211 6105 -6107 0
19 6105 -6107 0
18 210 -6110 0
-18 -210 -6110 0
-18 210 6110 0
18 -210 6110 0
6110 6107 -6091 0
-6110 -6107 -6091 0
-6110 6107 6091 0
6110 -6107 6091 0
-18 -210 6109 0
-210 -6107 6109 0
-18 -6107 6109 0
18 210 -6109 0
210 6107 -6109 0
18 6107 -6109 0
17 209 -6112 0
-17 -209 -6112 0
-17 209 6112 0
17 -209 6112 0
6112 6109 -6090 0
-6112 -6109 -6090 0
-6112 6109 6090 0
6112 -6109 6090 0
-17 -209 6111 0
-209 -6109 6111 0
-17 -6109 6111 0
17 209 -6111 0
209 6109 -6111 0
17 6109 -6111 0
16 208 -6114 0
-16 -208 -6114 0
-16 208 6114 0
16 -208 6114 0
6114 6111 -6089 0
-6114 -6111 -6089 0
-6114 6111 6089 0
6114 -6111 6089 0
-16 -208 6113 0
-208 -6111 6113 0
-16 -6111 6113 0
16 208 -6113 0
208 6111 -6113 0
16 6111 -6113 0
15 207 -6116 0
-15 -207 -6116 0
-15 207 6116 0
15 -207 6116 0
6116 6113 -6088 0
-6116 -6113 -6088 0
-6116 6113 6088 0
6116 -6113 6088 0
-15 -207 6115 0
-207 -6113 6115 0
-15 -6113 6115 0
15 207 -6115 0
207 6113 -6115 0
15 6113 -6115 0
14 206 -6118 0
-14 -206 -6118 0
-14 206 6118 0
14 -206 6118 0
6118 6115 -6087 0
-6118 -6115 -6087 0
-6118 6115 6087 0
6118 -6115 6087 0
-14 -206 6117 0
-206 -6115 6117 0
-14 -6115 6117 0
14 206 -6117 0
206 6115 -6117 0
14 6115 -6117 0
13 205 -6120 0
-13 -205 -6120 0
-13 205 6120 0
13 -205 6120 0
6120 6117 -6086 0
-6120 -6117 -6086 0
-6120 6117 6086 0
6120 -6117 6086 0
-13 -205 6119 0
-205 -6117 6119 0
-13 -6117 6119 0
13 205 -6119 0
205 6117 -6119 0
13 6117 -6119 0
12 204 -6122 0
-12 -204 -6122 0
-12 204 6122 0
12 -204 6122 0
6122 6119 -6085 0
-6122 -6119 -6085 0
-6122 6119 6085 0
6122 -6119 6085 0
-12 -204 6121 0
-204 -6119 6121 0
-12 -6119 6121 0
12 204 -6121 0
204 6119 -6121 0
12 6119 -6121 0
11 203 -6124 0
-11 -203 -6124 0
-11 203 6124 0
11 -203 6124 0
6124 6121 -6084 0
-6124 -6121 -6084 0
-6124 6121 6084 0
6124 -6121 6084 0
-11 -203 6123 0
-203 -6121 6123 0
-11 -6121 6123 0
11 203 -6123 0
203 6121 -6123 0
11 6121 -6123 0
10 202 -6126 0
-10 -202 -6126 0
-10 202 6126 0
10 -202 6126 0
6126 6123 -6083 0
-6126 -6123 -6083 0
-6126 6123 6083 0
6126 -6123 6083 0
-10 -202 6125 0
-202 -6123 6125 0
-10 -6123 6125 0
10 202 -6125 0
202 6123 -6125 0
10 6123 -6125 0
9 201 -6128 0
-9 -201 -6128 0
-9 201 6128 0
9 -201 6128 0
6128 6125 -6082 0
-6128 -6125 -6082 0
-6128 6125 6082 0
6128 -6125 6082 0
-9 -201 6127 0
-201 -6125 6127 0
-9 -6125 6127 0
9 201 -6127 0
201 6125 -6127 0
9 6125 -6127 0
8 200 -6130 0
-8 -200 -6130 0
-8 200 6130 0
8 -200 6130 0
6130 6127 -6081 0
-6130 -6127 -6081 0
-6130 6127 6081 0
6130 -6127 6081 0
-8 -200 6129 0
-200 -6127 6129 0
-8 -6127 6129 0
8 200 -6129 0
200 6127 -6129 0
8 6127 -6129 0
7 199 -6132 0
-7 -199 -6132 0
-7 199 6132 0
7 -199 6132 0
6132 6129 -6080 0
-6132 -6129 -6080 0
-6132 6129 6080 0
6132 -6129 6080 0
-7 -199 6131 0
-199 -6129 6131 0
-7 -6129 6131 0
7 199 -6131 0
199 6129 -6131 0
7 6129 -6131 0
6 198 -6134 0
-6 -198 -6134 0
-6 198 6134 0
6 -198 6134 0
6134 6131 -6079 0
-6134 -6131 -6079 0
-6134 6131 6079 0
6134 -6131 6079 0
-6 -198 6133 0
-198 -6131 6133 0
-6 -6131 6133 0
6 198 -6133 0
198 6131 -6133 0
6 6131 -6133 0
5 197 -6136 0
-5 -197 -6136 0
-5 197 6136 0
5 -197 6136 0
6136 6133 -6078 0
-6136 -6133 -6078 0
-6136 6133 6078 0
6136 -6133 6078 0
-5 -197 6135 0
-197 -6133 6135 0
-5 -6133 6135 0
5 197 -6135 0
197 6133 -6135 0
5 6133 -6135 0
4 196 -6138 0
-4 -196 -6138 0
-4 196 6138 0
4 -196 6138 0
6138 6135 -6077 0
-6138 -6135 -6077 0
-6138 6135 6077 0
6138 -6135 6077 0
-4 -196 6137 0
-196 -6135 6137 0
-4 -6135 6137 0
4 196 -6137 0
196 6135 -6137 0
4 6135 -6137 0
3 195 -6140 0
-3 -195 -6140 0
-3 195 6140 0
3 -195 6140 0
6140 6137 -6076 0
-6140 -6137 -6076 0
-6140 6137 6076 0
6140 -6137 6076 0
-3 -195 6139 0
-195 -6137 6139 0
-3 -6137 6139 0
3 195 -6139 0
195 6137 -6139 0
3 6137 -6139 0
2 194 -6142 0
-2 -194 -6142 0
-2 194 6142 0
2 -194 6142 0
6142 6139 -6075 0
-6142 -6139 -6075 0
-6142 6139 6075 0
6142 -6139 6075 0
-2 -194 6141 0
-194 -6139 6141 0
-2 -6139 6141 0
2 194 -6141 0
194 6139 -6141 0
2 6139 -6141 0
1 193 -6143 0
-1 -193 -6143 0
-1 193 6143 0
1 -193 6143 0
6143 6141 -6074 0
-6143 -6141 -6074 0
-6143 6141 6074 0
6143 -6141 6074 0
-1 -193 6073 0
-193 -6141 6073 0
-1 -6141 6073 0
1 193 -6073 0
193 6141 -6073 0
1 6141 -6073 0
-6144 0
5970 -6144 0
-5970 6144 0
5971 -6073 0
-5971 6073 0
5972 -6074 0
-5972 6074 0
5973 -6075 0
-5973 6075 0
5974 -6076 0
-5974 6076 0
5975 -6077 0
-5975 6077 0
5976 -6078 0
-5976 6078 0
5977 -6079 0
-5977 6079 0
5978 -6080 0
-5978 6080 0
5979 -6081 0
-5979 6081 0
5980 -6082 0
-5980 6082 0
5981 -6083 0
-5981 6083 0
5982 -6084 0
-5982 6084 0
5983 -6085 0
-5983 6085 0
5984 -6086 0
-5984 6086 0
5985 -6087 0
-5985 6087 0
5986 -6088 0
-5986 6088 0
5987 -6089 0
-5987 6089 0
5988 -6090 0
-5988 6090 0
5989 -6091 0
-5989 6091 0
5990 -6092 0
-5990 6092 0
5991 -6093 0
-5991 6093 0
5992 -6094 0
-5992 6094 0
5993 -6095 0
-5993 6095 0
5994 -6096 0
-5994 6096 0
5995 -6097 0
-5995 6097 0
72 168 -6169 0
-72 -168 -6169 0
-72 168 6169 0
72 -168 6169 0
72 -6170 0
168 -6170 0
-72 -168 6170 0
71 167 -6172 0
-71 -167 -6172 0
-71 167 6172 0
71 -167 6172 0
6172 6170 -6168 0
-6172 -6170 -6168 0
-6172 6170 6168 0
6172 -6170 6168 0
-71 -167 6171 0
-167 -6170 6171 0
-71 -6170 6171 0
71 167 -6171 0
167 6170 -6171 0
71 6170 -6171 0
70 166 -6174 0
-70 -166 -6174 0
-70 166 6174 0
70 -166 6174 0
6174 6171 -6167 0
-6174 -6171 -6167 0
-6174 6171 6167 0
6174 -6171 6167 0
-70 -166 6173 0
-166 -6171 6173 0
-70 -6171 6173 0
70 166 -6173 0
166 6171 -6173 0
70 6171 -6173 0
69 165 -6176 0
-69 -165 -6176 0
-69 165 6176 0
69 -165 6176 0
6176 6173 -6166 0
-6176 -6173 -6166 0
-6176 6173 6166 0
6176 -6173 6166 0
-69 -165 6175 0
-165 -6173 6175 0
-69 -6173 6175 0
69 165 -6175 0
165 6173 -6175 0
69 6173 -6175 0
68 164 -6178 0
-68 -164 -6178 0
-68 164 6178 0
68 -164 6178 0
6178 6175 -6165 0
-6178 -6175 -6165 0
-6178 6175 6165 0
6178 -6175 6165 0
-68 -164 6177 0
-164 -6175 6177 0
-68 -6175 6177 0
68 164 -6177 0
164 6175 -6177 0
68 6175 -6177 0
67 163 -6180 0
-67 -163 -6180 0
-67 163 6180 0
67 -163 6180 0
6180 6177 -6164 0
-6180 -6177 -6164 0
-6180 6177 6164 0
6180 -6177 6164 0
-67 -163 6179 0
-163 -6177 6179 0
-67 -6177 6179 0
67 163 -6179 0
163 6177 -6179 0
67 6177 -6179 0
66 162 -6182 0
-66 -162 -6182 0
-66 162 6182 0
66 -162 6182 0
6182 6179 -6163 0
-6182 -6179 -6163 0
-6182 6179 6163 0
6182 -6179 6163 0
-66 -162 6181 0
-162 -6179 6181 0
-66 -6179 6181 0
66 162 -6181 0
162 6179 -6181 0
66 6179 -6181 0
65 161 -6184 0
-65 -161 -6184 0
-65 161 6184 0
65 -161 6184 0
6184 6181 -6162 0
-6184 -6181 -6162 0
-6184 6181 6162 0
6184 -6181 6162 0
-65 -161 6183 0
-161 -6181 6183 0
-65 -6181 6183 0
65 161 -6183 0
161 6181 -6183 0
65 6181 -6183 0
64 160 -6186 0
-64 -160 -6186 0
-64 160 6186 0
64 -160 6186 0
6186 6183 -6161 0
-6186 -6183 -6161 0
-6186 6183 6161 0
6186 -6183 6161 0
-64 -160 6185 0
-160 -6183 6185 0
-64 -6183 6185 0
64 160 -6185 0
160 6183 -6185 0
64 6183 -6185 0
63 159 -6188 0
-63 -159 -6188 0
-63 159 6188 0
63 -159 6188 0
6188 6185 -6160 0
-6188 -6185 -6160 0
-6188 6185 6160 0
6188 -6185 6160 0
-63 -159 6187 0
-159 -6185 6187 0
-63 -6185 6187 0
63 159 -6187 0
159 6185 -6187 0
63 6185 -6187 0
62 158 -6190 0
-62 -158 -6190 0
-62 158 6190 0
62 -158 6190 0
6190 6187 -6159 0
-6190 -6187 -6159 0
-6190 6187 6159 0
6190 -6187 6159 0
-62 -158 6189 0
-158 -6187 6189 0
-62 -6187 6189 0
62 158 -6189 0
158 6187 -6189 0
62 6187 -6189 0
61 157 -6192 0
-61 -157 -6192 0
-61 157 6192 0
61 -157 6192 0
6192 6189 -6158 0
-6192 -6189 -6158 0
-6192 6189 6158 0
6192 -6189 6158 0
-61 -157 6191 0
-157 -6189 6191 0
-61 -6189 6191 0
61 157 -6191 0
157 6189 -6191 0
61 6189 -6191 0
60 156 -6194 0
-60 -156 -6194 0
-60 156 6194 0
60 -156 6194 0
6194 6191 -6157 0
-6194 -6191 -6157 0
-6194 6191 6157 0
6194 -6191 6157 0
-60 -156 6193 0
-156 -6191 6193 0
-60 -6191 6193 0
60 156 -6193 0
156 6191 -6193 0
60 6191 -6193 0
59 155 -6196 0
-59 -155 -6196 0
-59 155 6196 0
59 -155 6196 0
6196 6193 -6156 0
-6196 -6193 -6156 0
-6196 6193 6156 0
6196 -6193 6156 0
-59 -155 6195 0
-155 -6193 6195 0
-59 -6193 6195 0
59 155 -6195 0
155 6193 -6195 0
59 6193 -6195 0
58 154 -6198 0
-58 -154 -6198 0
-58 154 6198 0
58 -154 6198 0
6198 6195 -6155 0
-6198 -6195 -6155 0
-6198 6195 6155 0
6198 -6195 6155 0
-58 -154 6197 0
-154 -6195 6197 0
-58 -6195 6197 0
58 154 -6197 0
154 6195 -6197 0
58 6195 -6197 0
57 153 -6200 0
-57 -153 -6200 0
-57 153 6200 0
57 -153 6200 0
6200 6197 -6154 0
-6200 -6197 -6154 0
-6200 6197 6154 0
6200 -6197 6154 0
-57 -153 6199 0
-153 -6197 6199 0
-57 -6197 6199 0
57 153 -6199 0
153 6197 -6199 0
57 6197 -6199 0
56 152 -6202 0
-56 -152 -6202 0
-56 152 6202 0
56 -152 6202 0
6202 6199 -6153 0
-6202 -6199 -6153 0
-6202 6199 6153 0
6202 -6199 6153 0
-56 -152 6201 0
-152 -6199 6201 0
-56 -6199 6201 0
56 152 -6201 0
152 6199 -6201 0
56 6199 -6201 0
55 151 -6204 0
-55 -151 -6204 0
-55 151 6204 0
55 -151 6204 0
6204 6201 -6152 0
-6204 -6201 -6152 0
-6204 6201 6152 0
6204 -6201 6152 0
-55 -151 6203 0
-151 -6201 6203 0
-55 -6201 6203 0
55 151 -6203 0
151 6201 -6203 0
55 6201 -6203 0
54 150 -6206 0
-54 -150 -6206 0
-54 150 6206 0
54 -150 6206 0
6206 6203 -6151 0
-6206 -6203 -6151 0
-6206 6203 6151 0
6206 -6203 6151 0
-54 -150 6205 0
-150 -6203 6205 0
-54 -6203 6205 0
54 150 -6205 0
150 6203 -6205 0
54 6203 -6205 0
53 149 -6208 0
-53 -149 -6208 0
-53 149 6208 0
53 -149 6208 0
6208 6205 -6150 0
-6208 -6205 -6150 0
-6208 6205 6150 0
6208 -6205 6150 0
-53 -149 6207 0
-149 -6205 6207 0
-53 -6205 6207 0
53 149 -6207 0
149 6205 -6207 0
53 6205 -6207 0
52 148 -6210 0
-52 -148 -6210 0
-52 148 6210 0
52 -148 6210 0
6210 6207 -6149 0
-6210 -6207 -6149 0
-6210 6207 6149 0
6210 -6207 6149 0
-52 -148 6209 0
-148 -6207 6209 0
-52 -6207 6209 0
52 148 -6209 0
148 6207 -6209 0
52 6207 -6209 0
51 147 -6212 0
-51 -147 -6212 0
-51 147 6212 0
51 -147 6212 0
6212 6209 -6148 0
-6212 -6209 -6148 0
-6212 6209 6148 0
6212 -6209 6148 0
-51 -147 6211 0
-147 -6209 6211 0
-51 -6209 6211 0
51 147 -6211 0
147 6209 -6211 0
51 6209 -6211 0
50 146 -6214 0
-50 -146 -6214 0
-50 146 6214 0
50 -146 6214 0
6214 6211 -6147 0
-6214 -6211 -6147 0
-6214 6211 6147 0
6214 -6211 6147 0
-50 -146 6213 0
-146 -6211 6213 0
-50 -6211 6213 0
50 146 -6213 0
146 6211 -6213 0
50 6211 -6213 0
49 145 -6215 0
-49 -145 -6215 0
-49 145 6215 0
49 -145 6215 0
6215 6213 -6146 0
-6215 -6213 -6146 0
-6215 6213 6146 0
6215 -6213 6146 0
-49 -145 6145 0
-145 -6213 6145 0
-49 -6213 6145 0
49 145 -6145 0
145 6213 -6145 0
49 6213 -6145 0
-6216 0
5970 -6216 0
-5970 6216 0
5971 -6145 0
-5971 6145 0
5972 -6146 0
-5972 6146 0
5973 -6147 0
-5973 6147 0
5974 -6148 0
-5974 6148 0
5975 -6149 0
-5975 6149 0
5976 -6150 0
-5976 6150 0
5977 -6151 0
-5977 6151 0
5978 -6152 0
-5978 6152 0
5979 -6153 0
-5979 6153 0
5980 -6154 0
-5980 6154 0
5981 -6155 0
-5981 6155 0
5982 -6156 0
-5982 6156 0
5983 -6157 0
-5983 6157 0
5984 -6158 0
-5984 6158 0
5985 -6159 0
-5985 6159 0
5986 -6160 0
-5986 6160 0
5987 -6161 0
-5987 6161 0
5988 -6162 0
-5988 6162 0
5989 -6163 0
-5989 6163 0
5990 -6164 0
-5990 6164 0
5991 -6165 0
-5991 6165 0
5992 -6166 0
-5992 6166 0
5993 -6167 0
-5993 6167 0
5994 -6168 0
-5994 6168 0
5995 -6169 0
-5995 6169 0
96 144 -6241 0
-96 -144 -6241 0
-96 144 6241 0
96 -144 6241 0
96 -6242 0
144 -6242 0
-96 -144 6242 0
95 143 -6244 0
-95 -143 -6244 0
-95 143 6244 0
95 -143 6244 0
6244 6242 -6240 0
-6244 -6242 -6240 0
-6244 6242 6240 0
6244 -6242 6240 0
-95 -143 6243 0
-143 -6242 6243 0
-95 -6242 6243 0
95 143 -6243 0
143 6242 -6243 0
95 6242 -6243 0
94 142 -6246 0
-94 -142 -6246 0
-94 142 6246 0
94 -142 6246 0
6246 6243 -6239 0
-6246 -6243 -6239 0
-6246 6243 6239 0
6246 -6243 6239 0
-94 -142 6245 0
-142 -6243 6245 0
-94 -6243 6245 0
94 142 -6245 0
142 6243 -6245 0
94 6243 -6245 0
93 141 -6248 0
-93 -141 -6248 0
-93 141 6248 0
93 -141 6248 0
6248 6245 -6238 0
-6248 -6245 -6238 0
-6248 6245 6238 0
6248 -6245 6238 0
-93 -141 6247 0
-141 -6245 6247 0
-93 -6245 6247 0
93 141 -6247 0
141 6245 -6247 0
93 6245 -6247 0
92 140 -6250 0
-92 -140 -6250 0
-92 140 6250 0
92 -140 6250 0
6250 6247 -6237 0
-6250 -6247 -6237 0
-6250 6247 6237 0
6250 -6247 6237 0
-92 -140 6249 0
-140 -6247 6249 0
-92 -6247 6249 0
92 140 -6249 0
140 6247 -6249 0
92 6247 -6249 0
91 139 -6252 0
-91 -139 -6252 0
-91 139 6252 0
91 -139 6252 0
6252 6249 -6236 0
-6252 -6249 -6236 0
-6252 6249 6236 0
6252 -6249 6236 0
-91 -139 6251 0
-139 -6249 6251 0
-91 -6249 6251 0
91 139 -6251 0
139 6249 -6251 0
91 6249 -6251 0
90 138 -6254 0
-90 -138 -6254 0
-90 138 6254 0
90 -138 6254 0
6254 6251 -6235 0
-6254 -6251 -6235 0
-6254 6251 6235 0
6254 -6251 6235 0
-90 -138 6253 0
-138 -6251 6253 0
-90 -6251 6253 0
90 138 -6253 0
138 6251 -6253 0
90 6251 -6253 0
89 137 -6256 0
-89 -137 -6256 0
-89 137 6256 0
89 -137 6256 0
6256 6253 -6234 0
-6256 -6253 -6234 0
-6256 6253 6234 0
6256 -6253 6234 0
-89 -137 6255 0
-137 -6253 6255 0
-89 -6253 6255 0
89 137 -6255 0
137 6253 -6255 0
89 6253 -6255 0
88 136 -6258 0
-88 -136 -6258 0
-88 136 6258 0
88 -136 6258 0
6258 6255 -6233 0
-6258 -6255 -6233 0
-6258 6255 6233 0
6258 -6255 6233 0
-88 -136 6257 0
-136 -6255 6257 0
-88 -6255 6257 0
88 136 -6257 0
136 6255 -6257 0
88 6255 -6257 0
87 135 -6260 0
-87 -135 -6260 0
-87 135 6260 0
87 -135 6260 0
6260 6257 -6232 0
-6260 -6257 -6232 0
-6260 6257 6232 0
6260 -6257 6232 0
-87 -135 6259 0
-135 -6257 6259 0
-87 -6257 6259 0
87 135 -6259 0
135 6257 -6259 0
87 6257 -6259 0
86 134 -6262 0
-86 -134 -6262 0
-86 134 6262 0
86 -134 6262 0
6262 6259 -6231 0
-6262 -6259 -6231 0
-6262 6259 6231 0
6262 -6259 6231 0
-86 -134 6261 0
-134 -6259 6261 0
-86 -6259 6261 0
86 134 -6261 0
134 6259 -6261 0
86 6259 -6261 0
85 133 -6264 0
-85 -133 -6264 0
-85 133 6264 0
85 -133 6264 0
6264 6261 -6230 0
-6264 -6261 -6230 0
-6264 6261 6230 0
6264 -6261 6230 0
-85 -133 6263 0
-133 -6261 6263 0
-85 -6261 6263 0
85 133 -6263 0
133 6261 -6263 0
85 6261 -6263 0
84 132 -6266 0
-84 -132 -6266 0
-84 132 6266 0
84 -132 6266 0
6266 6263 -6229 0
-6266 -6263 -6229 0
-6266 6263 6229 0
6266 -6263 6229 0
-84 -132 6265 0
-132 -6263 6265 0
-84 -6263 6265 0
84 132 -6265 0
132 6263 -6265 0
84 6263 -6265 0
83 131 -6268 0
-83 -131 -6268 0
-83 131 6268 0
83 -131 6268 0
6268 6265 -6228 0
-6268 -6265 -6228 0
-6268 6265 6228 0
6268 -6265 6228 0
-83 -131 6267 0
-131 -6265 6267 0
-83 -6265 6267 0
83 131 -6267 0
131 6265 -6267 0
83 6265 -6267 0
82 130 -6270 0
-82 -130 -6270 0
-82 130 6270 0
82 -130 6270 0
6270 6267 -6227 0
-6270 -6267 -6227 0
-6270 6267 6227 0
6270 -6267 6227 0
-82 -130 6269 0
-130 -6267 6269 0
-82 -6267 6269 0
82 130 -6269 0
130 6267 -6269 0
82 6267 -6269 0
81 129 -6272 0
-81 -129 -6272 0
-81 129 6272 0
81 -129 6272 0
6272 6269 -6226 0
-6272 -6269 -6226 0
-6272 6269 6226 0
6272 -6269 6226 0
-81 -129 6271 0
-129 -6269 6271 0
-81 -6269 6271 0
81 129 -6271 0
129 6269 -6271 0
81 6269 -6271 0
80 128 -6274 0
-80 -128 -6274 0
-80 128 6274 0
80 -128 6274 0
6274 6271 -6225 0
-6274 -6271 -6225 0
-6274 6271 6225 0
6274 -6271 6225 0
-80 -128 6273 0
-128 -6271 6273 0
-80 -6271 6273 0
80 128 -6273 0
128 6271 -6273 0
80 6271 -6273 0
79 127 -6276 0
-79 -127 -6276 0
-79 127 6276 0
79 -127 6276 0
6276 6273 -6224 0
-6276 -6273 -6224 0
-6276 6273 6224 0
6276 -6273 6224 0
-79 -127 6275 0
-127 -6273 6275 0
-79 -6273 6275 0
79 127 -6275 0
127 6273 -6275 0
79 6273 -6275 0
78 126 -6278 0
-78 -126 -6278 0
-78 126 6278 0
78 -126 6278 0
6278 6275 -6223 0
-6278 -6275 -6223 0
-6278 6275 6223 0
6278 -6275 6223 0
-78 -126 6277 0
-126 -6275 6277 0
-78 -6275 6277 0
78 126 -6277 0
126 6275 -6277 0
78 6275 -6277 0
77 125 -6280 0
-77 -125 -6280 0
-77 125 6280 0
77 -125 6280 0
6280 6277 -6222 0
-6280 -6277 -6222 0
-6280 6277 6222 0
6280 -6277 6222 0
-77 -125 6279 0
-125 -6277 6279 0
-77 -6277 6279 0
77 125 -6279 0
125 6277 -6279 0
77 6277 -6279 0
76 124 -6282 0
-76 -124 -6282 0
-76 124 6282 0
76 -124 6282 0
6282 6279 -6221 0
-6282 -6279 -6221 0
-6282 6279 6221 0
6282 -6279 6221 0
-76 -124 6281 0
-124 -6279 6281 0
-76 -6279 6281 0
76 124 -6281 0
124 6279 -6281 0
76 6279 -6281 0
75 123 -6284 0
-75 -123 -6284 0
-75 123 6284 0
75 -123 6284 0
6284 6281 -6220 0
-6284 -6281 -6220 0
-6284 6281 6220 0
6284 -6281 6220 0
-75 -123 6283 0
-123 -6281 6283 0
-75 -6281 6283 0
75 123 -6283 0
123 6281 -6283 0
75 6281 -6283 0
74 122 -6286 0
-74 -122 -6286 0
-74 122 6286 0
74 -122 6286 0
6286 6283 -6219 0
-6286 -6283 -6219 0
-6286 6283 6219 0
6286 -6283 6219 0
-74 -122 6285 0
-122 -6283 6285 0
-74 -6283 6285 0
74 122 -6285 0
122 6283 -6285 0
74 6283 -6285 0
73 121 -6287 0
-73 -121 -6287 0
-73 121 6287 0
73 -121 6287 0
6287 6285 -6218 0
-6287 -6285 -6218 0
-6287 6285 6218 0
6287 -6285 6218 0
-73 -121 6217 0
-121 -6285 6217 0
-73 -6285 6217 0
73 121 -6217 0
121 6285 -6217 0
73 6285 -6217 0
-6288 0
5970 -6288 0
-5970 6288 0
5971 -6217 0
-5971 6217 0
5972 -6218 0
-5972 6218 0
5973 -6219 0
-5973 6219 0
5974 -6220 0
-5974 6220 0
5975 -6221 0
-5975 6221 0
5976 -6222 0
-5976 6222 0
5977 -6223 0
-5977 6223 0
5978 -6224 0
-5978 6224 0
5979 -6225 0
-5979 6225 0
5980 -6226 0
-5980 6226 0
5981 -6227 0
-5981 6227 0
5982 -6228 0
-5982 6228 0
5983 -6229 0
-5983 6229 0
5984 -6230 0
-5984 6230 0
5985 -6231 0
-5985 6231 0
5986 -6232 0
-5986 6232 0
5987 -6233 0
-5987 6233 0
5988 -6234 0
-5988 6234 0
5989 -6235 0
-5989 6235 0
5990 -6236 0
-5990 6236 0
5991 -6237 0
-5991 6237 0
5992 -6238 0
-5992 6238 0
5993 -6239 0
-5993 6239 0
5994 -6240 0
-5994 6240 0
5995 -6241 0
-5995 6241 0
48 192 -6313 0
-48 -192 -6313 0
-48 192 6313 0
48 -192 6313 0
48 -6314 0
192 -6314 0
-48 -192 6314 0
47 191 -6316 0
-47 -191 -6316 0
-47 191 6316 0
47 -191 6316 0
6316 6314 -6312 0
-6316 -6314 -6312 0
-6316 6314 6312 0
6316 -6314 6312 0
-47 -191 6315 0
-191 -6314 6315 0
-47 -6314 6315 0
47 191 -6315 0
191 6314 -6315 0
47 6314 -6315 0
46 190 -6318 0
-46 -190 -6318 0
-46 190 6318 0
46 -190 6318 0
6318 6315 -6311 0
-6318 -6315 -6311 0
-6318 6315 6311 0
6318 -6315 6311 0
-46 -190 6317 0
-190 -6315 6317 0
-46 -6315 6317 0
46 190 -6317 0
190 6315 -6317 0
46 6315 -6317 0
45 189 -6320 0
-45 -189 -6320 0
-45 189 6320 0
45 -189 6320 0
6320 6317 -6310 0
-6320 -6317 -6310 0
-6320 6317 6310 0
6320 -6317 6310 0
-45 -189 6319 0
-189 -6317 6319 0
-45 -6317 6319 0
45 189 -6319 0
189 6317 -6319 0
45 6317 -6319 0
44 188 -6322 0
-44 -188 -6322 0
-44 188 6322 0
44 -188 6322 0
6322 6319 -6309 0
-6322 -6319 -6309 0
-6322 6319 6309 0
6322 -6319 6309 0
-44 -188 6321 0
-188 -6319 6321 0
-44 -6319 6321 0
44 188 -6321 0
188 6319 -6321 0
44 6319 -6321 0
43 187 -6324 0
-43 -187 -6324 0
-43 187 6324 0
43 -187 6324 0
6324 6321 -6308 0
-6324 -6321 -6308 0
-6324 6321 6308 0
6324 -6321 6308 0
-43 -187 6323 0
-187 -6321 6323 0
-43 -6321 6323 0
43 187 -6323 0
187 6321 -6323 0
43 6321 -6323 0
42 186 -6326 0
-42 -186 -6326 0
-42 186 6326 0
42 -186 6326 0
6326 6323 -6307 0
-6326 -6323 -6307 0
-6326 6323 6307 0
6326 -6323 6307 0
-42 -186 6325 0
-186 -6323 6325 0
-42 -6323 6325 0
42 186 -6325 0
186 6323 -6325 0
42 6323 -6325 0
41 185 -6328 0
-41 -185 -6328 0
-41 185 6328 0
41 -185 6328 0
6328 6325 -6306 0
-6328 -6325 -6306 0
-6328 6325 6306 0
6328 -6325 6306 0
-41 -185 6327 0
-185 -6325 6327 0
-41 -6325 6327 0
41 185 -6327 0
185 6325 -6327 0
41 6325 -6327 0
40 184 -6330 0
-40 -184 -6330 0
-40 184 6330 0
40 -184 6330 0
6330 6327 -6305 0
-6330 -6327 -6305 0
-6330 6327 6305 0
6330 -6327 6305 0
-40 -184 6329 0
-184 -6327 6329 0
-40 -6327 6329 0
40 184 -6329 0
184 6327 -6329 0
40 6327 -6329 0
39 183 -6332 0
-39 -183 -6332 0
-39 183 6332 0
39 -183 6332 0
6332 6329 -6304 0
-6332 -6329 -6304 0
-6332 6329 6304 0
6332 -6329 6304 0
-39 -183 6331 0
-183 -6329 6331 0
-39 -6329 6331 0
39 183 -6331 0
183 6329 -6331 0
39 6329 -6331 0
38 182 -6334 0
-38 -182 -6334 0
-38 182 6334 0
38 -182 6334 0
6334 6331 -6303 0
-6334 -6331 -6303 0
-6334 6331 6303 0
6334 -6331 6303 0
-38 -182 6333 0
-182 -6331 6333 0
-38 -6331 6333 0
38 182 -6333 0
182 6331 -6333 0
38 6331 -6333 0
37 181 -6336 0
-37 -181 -6336 0
-37 181 6336 0
37 -181 6336 0
6336 6333 -6302 0
-6336 -6333 -6302 0
-6336 6333 6302 0
6336 -6333 6302 0
-37 -181 6335 0
-181 -6333 6335 0
-37 -6333 6335 0
37 181 -6335 0
181 6333 -6335 0
37 6333 -6335 0
36 180 -6338 0
-36 -180 -6338 0
-36 180 6338 0
36 -180 6338 0
6338 6335 -6301 0
-6338 -6335 -6301 0
-6338 6335 6301 0
6338 -6335 6301 0
-36 -180 6337 0
-180 -6335 6337 0
-36 -6335 6337 0
36 180 -6337 0
180 6335 -6337 0
36 6335 -6337 0
35 179 -6340 0
-35 -179 -6340 0
-35 179 6340 0
35 -179 6340 0
6340 6337 -6300 0
-6340 -6337 -6300 0
-6340 6337 6300 0
6340 -6337 6300 0
-35 -179 6339 0
-179 -6337 6339 0
-35 -6337 6339 0
35 179 -6339 0
179 6337 -6339 0
35 6337 -6339 0
34 178 -6342 0
-34 -178 -6342 0
-34 178 6342 0
34 -178 6342 0
6342 6339 -6299 0
-6342 -6339 -6299 0
-6342 6339 6299 0
6342 -6339 6299 0
-34 -178 6341 0
-178 -6339 6341 0
-34 -6339 6341 0
34 178 -6341 0
178 6339 -6341 0
34 6339 -6341 0
33 177 -6344 0
-33 -177 -6344 0
-33 177 6344 0
33 -177 6344 0
6344 6341 -6298 0
-6344 -6341 -6298 0
-6344 6341 6298 0
6344 -6341 6298 0
-33 -177 6343 0
-177 -6341 6343 0
-33 -6341 6343 0
33 177 -6343 0
177 6341 -6343 0
33 6341 -6343 0
32 176 -6346 0
-32 -176 -6346 0
-32 176 6346 0
32 -176 6346 0
6346 6343 -6297 0
-6346 -6343 -6297 0
-6346 6343 6297 0
6346 -6343 6297 0
-32 -176 6345 0
-176 -6343 6345 0
-32 -6343 6345 0
32 176 -6345 0
176 6343 -6345 0
32 6343 -6345 0
31 175 -6348 0
-31 -175 -6348 0
-31 175 6348 0
31 -175 6348 0
6348 6345 -6296 0
-6348 -6345 -6296 0
-6348 6345 6296 0
6348 -6345 6296 0
-31 -175 6347 0
-175 -6345 6347 0
-31 -6345 6347 0
31 175 -6347 0
175 6345 -6347 0
31 6345 -6347 0
30 174 -6350 0
-30 -174 -6350 0
-30 174 6350 0
30 -174 6350 0
6350 6347 -6295 0
-6350 -6347 -6295 0
-6350 6347 6295 0
6350 -6347 6295 0
-30 -174 6349 0
-174 -6347 6349 0
-30 -6347 6349 0
30 174 -6349 0
174 6347 -6349 0
30 6347 -6349 0
29 173 -6352 0
-29 -173 -6352 0
-29 173 6352 0
29 -173 6352 0
6352 6349 -6294 0
-6352 -6349 -6294 0
-6352 6349 6294 0
6352 -6349 6294 0
-29 -173 6351 0
-173 -6349 6351 0
-29 -6349 6351 0
29 173 -6351 0
173 6349 -6351 0
29 6349 -6351 0
28 172 -6354 0
-28 -172 -6354 0
-28 172 6354 0
28 -172 6354 0
6354 6351 -6293 0
-6354 -6351 -6293 0
-6354 6351 6293 0
6354 -6351 6293 0
-28 -172 6353 0
-172 -6351 6353 0
-28 -6351 6353 0
28 172 -6353 0
172 6351 -6353 0
28 6351 -6353 0
27 171 -6356 0
-27 -171 -6356 0
-27 171 6356 0
27 -171 6356 0
6356 6353 -6292 0
-6356 -6353 -6292 0
-6356 6353 6292 0
6356 -6353 6292 0
-27 -171 6355 0
-171 -6353 6355 0
-27 -6353 6355 0
27 171 -6355 0
171 6353 -6355 0
27 6353 -6355 0
26 170 -6358 0
-26 -170 -6358 0
-26 170 6358 0
26 -170 6358 0
6358 6355 -6291 0
-6358 -6355 -6291 0
-6358 6355 6291 0
6358 -6355 6291 0
-26 -170 6357 0
-170 -6355 6357 0
-26 -6355 6357 0
26 170 -6357 0
170 6355 -6357 0
26 6355 -6357 0
25 169 -6359 0
-25 -169 -6359 0
-25 169 6359 0
25 -169 6359 0
6359 6357 -6290 0
-6359 -6357 -6290 0
-6359 6357 6290 0
6359 -6357 6290 0
-25 -169 6289 0
-169 -6357 6289 0
-25 -6357 6289 0
25 169 -6289 0
169 6357 -6289 0
25 6357 -6289 0
-6360 0
5970 -6360 0
-5970 6360 0
5971 -6289 0
-5971 6289 0
5972 -6290 0
-5972 6290 0
5973 -6291 0
-5973 6291 0
5974 -6292 0
-5974 6292 0
5975 -6293 0
-5975 6293 0
5976 -6294 0
-5976 6294 0
5977 -6295 0
-5977 6295 0
5978 -6296 0
-5978 6296 0
5979 -6297 0
-5979 6297 0
5980 -6298 0
-5980 6298 0
5981 -6299 0
-5981 6299 0
5982 -6300 0
-5982 6300 0
5983 -6301 0
-5983 6301 0
5984 -6302 0
-5984 6302 0
5985 -6303 0
-5985 6303 0
5986 -6304 0
-5986 6304 0
5987 -6305 0
-5987 6305 0
5988 -6306 0
-5988 6306 0
5989 -6307 0
-5989 6307 0
5990 -6308 0
-5990 6308 0
5991 -6309 0
-5991 6309 0
5992 -6310 0
-5992 6310 0
5993 -6311 0
-5993 6311 0
5994 -6312 0
-5994 6312 0
5995 -6313 0
-5995 6313 0
-6361 0
-6362 0
-6363 0
6389 24 -6416 0
-6389 -24 -6416 0
-6389 24 6416 0
6389 -24 6416 0
6389 -6417 0
24 -6417 0
-6389 -24 6417 0
6388 23 -6419 0
-6388 -23 -6419 0
-6388 23 6419 0
6388 -23 6419 0
6419 6417 -6415 0
-6419 -6417 -6415 0
-6419 6417 6415 0
6419 -6417 6415 0
-6388 -23 6418 0
-23 -6417 6418 0
-6388 -6417 6418 0
6388 23 -6418 0
23 6417 -6418 0
6388 6417 -6418 0
6387 22 -6421 0
-6387 -22 -6421 0
-6387 22 6421 0
6387 -22 6421 0
6421 6418 -6414 0
-6421 -6418 -6414 0
-6421 6418 6414 0
6421 -6418 6414 0
-6387 -22 6420 0
-22 -6418 6420 0
-6387 -6418 6420 0
6387 22 -6420 0
22 6418 -6420 0
6387 6418 -6420 0
6386 21 -6423 0
-6386 -21 -6423 0
-6386 21 6423 0
6386 -21 6423 0
6423 6420 -6413 0
-6423 -6420 -6413 0
-6423 6420 6413 0
6423 -6420 6413 0
-6386 -21 6422 0
-21 -6420 6422 0
-6386 -6420 6422 0
6386 21 -6422 0
21 6420 -6422 0
6386 6420 -6422 0
6385 20 -6425 0
-6385 -20 -6425 0
-6385 20 6425 0
6385 -20 6425 0
6425 6422 -6412 0
-6425 -6422 -6412 0
-6425 6422 6412 0
6425 -6422 6412 0
-6385 -20 6424 0
-20 -6422 6424 0
-6385 -6422 6424 0
6385 20 -6424 0
20 6422 -6424 0
6385 6422 -6424 0
6384 19 -6427 0
-6384 -19 -6427 0
-6384 19 6427 0
6384 -19 6427 0
6427 6424 -6411 0
-6427 -6424 -6411 0
-6427 6424 6411 0
6427 -6424 6411 0
-6384 -19 6426 0
-19 -6424 6426 0
-6384 -6424 6426 0
6384 19 -6426 0
19 6424 -6426 0
6384 6424 -6426 0
6383 18 -6429 0
-6383 -18 -6429 0
-6383 18 6429 0
6383 -18 6429 0
6429 6426 -6410 0
-6429 -6426 -6410 0
-6429 6426 6410 0
6429 -6426 6410 0
-6383 -18 6428 0
-18 -6426 6428 0
-6383 -6426 6428 0
6383 18 -6428 0
18 6426 -6428 0
6383 6426 -6428 0
6382 17 -6431 0
-6382 -17 -6431 0
-6382 17 6431 0
6382 -17 6431 0
6431 6428 -6409 0
-6431 -6428 -6409 0
-6431 6428 6409 0
6431 -6428 6409 0
-6382 -17 6430 0
-17 -6428 6430 0
-6382 -6428 6430 0
6382 17 -6430 0
17 6428 -6430 0
6382 6428 -6430 0
6381 16 -6433 0
-6381 -16 -6433 0
-6381 16 6433 0
6381 -16 6433 0
6433 6430 -6408 0
-6433 -6430 -6408 0
-6433 6430 6408 0
6433 -6430 6408 0
-6381 -16 6432 0
-16 -6430 6432 0
-6381 -6430 6432 0
6381 16 -6432 0
16 6430 -6432 0
6381 6430 -6432 0
6380 15 -6435 0
-6380 -15 -6435 0
-6380 15 6435 0
6380 -15 6435 0
6435 6432 -6407 0
-6435 -6432 -6407 0
-6435 6432 6407 0
6435 -6432 6407 0
-6380 -15 6434 0
-15 -6432 6434 0
-6380 -6432 6434 0
6380 15 -6434 0
15 6432 -6434 0
6380 6432 -6434 0
6379 14 -6437 0
-6379 -14 -6437 0
-6379 14 6437 0
6379 -14 6437 0
6437 6434 -6406 0
-6437 -6434 -6406 0
-6437 6434 6406 0
6437 -6434 6406 0
-6379 -14 6436 0
-14 -6434 6436 0
-6379 -6434 6436 0
6379 14 -6436 0
14 6434 -6436 0
6379 6434 -6436 0
6378 13 -6439 0
-6378 -13 -6439 0
-6378 13 6439 0
6378 -13 6439 0
6439 6436 -6405 0
-6439 -6436 -6405 0
-6439 6436 6405 0
6439 -6436 6405 0
-6378 -13 6438 0
-13 -6436 6438 0
-6378 -6436 6438 0
6378 13 -6438 0
13 6436 -6438 0
6378 6436 -6438 0
6377 12 -6441 0
-6377 -12 -6441 0
-6377 12 6441 0
6377 -12 6441 0
6441 6438 -6404 0
-6441 -6438 -6404 0
-6441 6438 6404 0
6441 -6438 6404 0
-6377 -12 6440 0
-12 -6438 6440 0
-6377 -6438 6440 0
6377 12 -6440 0
12 6438 -6440 0
6377 6438 -6440 0
6376 11 -6443 0
-6376 -11 -6443 0
-6376 11 6443 0
6376 -11 6443 0
6443 6440 -6403 0
-6443 -6440 -6403 0
-6443 6440 6403 0
6443 -6440 6403 0
-6376 -11 6442 0
-11 -6440 6442 0
-6376 -6440 6442 0
6376 11 -6442 0
11 6440 -6442 0
6376 6440 -6442 0
6375 10 -6445 0
-6375 -10 -6445 0
-6375 10 6445 0
6375 -10 6445 0
6445 6442 -6402 0
-6445 -6442 -6402 0
-6445 6442 6402 0
6445 -6442 6402 0
-6375 -10 6444 0
-10 -6442 6444 0
-6375 -6442 6444 0
6375 10 -6444 0
10 6442 -6444 0
6375 6442 -6444 0
6374 9 -6447 0
-6374 -9 -6447 0
-6374 9 6447 0
6374 -9 6447 0
6447 6444 -6401 0
-6447 -6444 -6401 0
-6447 6444 6401 0
6447 -6444 6401 0
-6374 -9 6446 0
-9 -6444 6446 0
-6374 -6444 6446 0
6374 9 -6446 0
9 6444 -6446 0
6374 6444 -6446 0
6373 8 -6449 0
-6373 -8 -6449 0
-6373 8 6449 0
6373 -8 6449 0
6449 6446 -6400 0
-6449 -6446 -6400 0
-6449 6446 6400 0
6449 -6446 6400 0
-6373 -8 6448 0
-8 -6446 6448 0
-6373 -6446 6448 0
6373 8 -6448 0
8 6446 -6448 0
6373 6446 -6448 0
6372 7 -6451 0
-6372 -7 -6451 0
-6372 7 6451 0
6372 -7 6451 0
6451 6448 -6399 0
-6451 -6448 -6399 0
-6451 6448 6399 0
6451 -6448 6399 0
-6372 -7 6450 0
-7 -6448 6450 0
-6372 -6448 6450 0
6372 7 -6450 0
7 6448 -6450 0
6372 6448 -6450 0
6371 6 -6453 0
-6371 -6 -6453 0
-6371 6 6453 0
6371 -6 6453 0
6453 6450 -6398 0
-6453 -6450 -6398 0
-6453 6450 6398 0
6453 -6450 6398 0
-6371 -6 6452 0
-6 -6450 6452 0
-6371 -6450 6452 0
6371 6 -6452 0
6 6450 -6452 0
6371 6450 -6452 0
6370 5 -6455 0
-6370 -5 -6455 0
-6370 5 6455 0
6370 -5 6455 0
6455 6452 -6397 0
-6455 -6452 -6397 0
-6455 6452 6397 0
6455 -6452 6397 0
-6370 -5 6454 0
-5 -6452 6454 0
-6370 -6452 6454 0
6370 5 -6454 0
5 6452 -6454 0
6370 6452 -6454 0
6369 4 -6457 0
-6369 -4 -6457 0
-6369 4 6457 0
6369 -4 6457 0
6457 6454 -6396 0
-6457 -6454 -6396 0
-6457 6454 6396 0
6457 -6454 6396 0
-6369 -4 6456 0
-4 -6454 6456 0
-6369 -6454 6456 0
6369 4 -6456 0
4 6454 -6456 0
6369 6454 -6456 0
6368 3 -6459 0
-6368 -3 -6459 0
-6368 3 6459 0
6368 -3 6459 0
6459 6456 -6395 0
-6459 -6456 -6395 0
-6459 6456 6395 0
6459 -6456 6395 0
-6368 -3 6458 0
-3 -6456 6458 0
-6368 -6456 6458 0
6368 3 -6458 0
3 6456 -6458 0
6368 6456 -6458 0
6367 2 -6461 0
-6367 -2 -6461 0
-6367 2 6461 0
6367 -2 6461 0
6461 6458 -6394 0
-6461 -6458 -6394 0
-6461 6458 6394 0
6461 -6458 6394 0
-6367 -2 6460 0
-2 -6458 6460 0
-6367 -6458 6460 0
6367 2 -6460 0
2 6458 -6460 0
6367 6458 -6460 0
6366 1 -6463 0
-6366 -1 -6463 0
-6366 1 6463 0
6366 -1 6463 0
6463 6460 -6393 0
-6463 -6460 -6393 0
-6463 6460 6393 0
6463 -6460 6393 0
-6366 -1 6462 0
-1 -6460 6462 0
-6366 -6460 6462 0
6366 1 -6462 0
1 6460 -6462 0
6366 6460 -6462 0
6365 6363 -6465 0
-6365 -6363 -6465 0
-6365 6363 6465 0
6365 -6363 6465 0
6465 6462 -6392 0
-6465 -6462 -6392 0
-6465 6462 6392 0
6465 -6462 6392 0
-6365 -6363 6464 0
-6363 -6462 6464 0
-6365 -6462 6464 0
6365 6363 -6464 0
6363 6462 -6464 0
6365 6462 -6464 0
6364 6362 -6466 0
-6364 -6362 -6466 0
-6364 6362 6466 0
6364 -6362 6466 0
6466 6464 -6391 0
-6466 -6464 -6391 0
-6466 6464 6391 0
6466 -6464 6391 0
-6364 -6362 6390 0
-6362 -6464 6390 0
-6364 -6464 6390 0
6364 6362 -6390 0
6362 6464 -6390 0
6364 6464 -6390 0
-6390 6361 0
6390 -6361 0
-6391 5941 0
6391 -5941 0
-6392 5942 0
6392 -5942 0
-6393 5943 0
6393 -5943 0
-6394 5944 0
6394 -5944 0
-6395 5945 0
6395 -5945 0
-6396 5946 0
6396 -5946 0
-6397 5947 0
6397 -5947 0
-6398 5948 0
6398 -5948 0
-6399 5949 0
6399 -5949 0
-6400 5950 0
6400 -5950 0
-6401 5951 0
6401 -5951 0
-6402 5952 0
6402 -5952 0
-6403 5953 0
6403 -5953 0
-6404 5954 0
6404 -5954 0
-6405 5955 0
6405 -5955 0
-6406 5956 0
6406 -5956 0
-6407 5957 0
6407 -5957 0
-6408 5958 0
6408 -5958 0
-6409 5959 0
6409 -5959 0
-6410 5960 0
6410 -5960 0
-6411 5961 0
6411 -5961 0
-6412 5962 0
6412 -5962 0
-6413 5963 0
6413 -5963 0
-6414 5964 0
6414 -5964 0
-6415 5965 0
6415 -5965 0
-6416 5966 0
6416 -5966 0
48 72 -6491 0
-48 -72 -6491 0
-48 72 6491 0
48 -72 6491 0
48 -6492 0
72 -6492 0
-48 -72 6492 0
47 71 -6494 0
-47 -71 -6494 0
-47 71 6494 0
47 -71 6494 0
6494 6492 -6490 0
-6494 -6492 -6490 0
-6494 6492 6490 0
6494 -6492 6490 0
-47 -71 6493 0
-71 -6492 6493 0
-47 -6492 6493 0
47 71 -6493 0
71 6492 -6493 0
47 6492 -6493 0
46 70 -6496 0
-46 -70 -6496 0
-46 70 6496 0
46 -70 6496 0
6496 6493 -6489 0
-6496 -6493 -6489 0
-6496 6493 6489 0
6496 -6493 6489 0
-46 -70 6495 0
-70 -6493 6495 0
-46 -6493 6495 0
46 70 -6495 0
70 6493 -6495 0
46 6493 -6495 0
45 69 -6498 0
-45 -69 -6498 0
-45 69 6498 0
45 -69 6498 0
6498 6495 -6488 0
-6498 -6495 -6488 0
-6498 6495 6488 0
6498 -6495 6488 0
-45 -69 6497 0
-69 -6495 6497 0
-45 -6495 6497 0
45 69 -6497 0
69 6495 -6497 0
45 6495 -6497 0
44 68 -6500 0
-44 -68 -6500 0
-44 68 6500 0
44 -68 6500 0
6500 6497 -6487 0
-6500 -6497 -6487 0
-6500 6497 6487 0
6500 -6497 6487 0
-44 -68 6499 0
-68 -6497 6499 0
-44 -6497 6499 0
44 68 -6499 0
68 6497 -6499 0
44 6497 -6499 0
43 67 -6502 0
-43 -67 -6502 0
-43 67 6502 0
43 -67 6502 0
6502 6499 -6486 0
-6502 -6499 -6486 0
-6502 6499 6486 0
6502 -6499 6486 0
-43 -67 6501 0
-67 -6499 6501 0
-43 -6499 6501 0
43 67 -6501 0
67 6499 -6501 0
43 6499 -6501 0
42 66 -6504 0
-42 -66 -6504 0
-42 66 6504 0
42 -66 6504 0
6504 6501 -6485 0
-6504 -6501 -6485 0
-6504 6501 6485 0
6504 -6501 6485 0
-42 -66 6503 0
-66 -6501 6503 0
-42 -6501 6503 0
42 66 -6503 0
66 6501 -6503 0
42 6501 -6503 0
41 65 -6506 0
-41 -65 -6506 0
-41 65 6506 0
41 -65 6506 0
6506 6503 -6484 0
-6506 -6503 -6484 0
-6506 6503 6484 0
6506 -6503 6484 0
-41 -65 6505 0
-65 -6503 6505 0
-41 -6503 6505 0
41 65 -6505 0
65 6503 -6505 0
41 6503 -6505 0
40 64 -6508 0
-40 -64 -6508 0
-40 64 6508 0
40 -64 6508 0
6508 6505 -6483 0
-6508 -6505 -6483 0
-6508 6505 6483 0
6508 -6505 6483 0
-40 -64 6507 0
-64 -6505 6507 0
-40 -6505 6507 0
40 64 -6507 0
64 6505 -6507 0
40 6505 -6507 0
39 63 -6510 0
-39 -63 -6510 0
-39 63 6510 0
39 -63 6510 0
6510 6507 -6482 0
-6510 -6507 -6482 0
-6510 6507 6482 0
6510 -6507 6482 0
-39 -63 6509 0
-63 -6507 6509 0
-39 -6507 6509 0
39 63 -6509 0
63 6507 -6509 0
39 6507 -6509 0
38 62 -6512 0
-38 -62 -6512 0
-38 62 6512 0
38 -62 6512 0
6512 6509 -6481 0
-6512 -6509 -6481 0
-6512 6509 6481 0
6512 -6509 6481 0
-38 -62 6511 0
-62 -6509 6511 0
-38 -6509 6511 0
38 62 -6511 0
62 6509 -6511 0
38 6509 -6511 0
37 61 -6514 0
-37 -61 -6514 0
-37 61 6514 0
37 -61 6514 0
6514 6511 -6480 0
-6514 -6511 -6480 0
-6514 6511 6480 0
6514 -6511 6480 0
-37 -61 6513 0
-61 -6511 6513 0
-37 -6511 6513 0
37 61 -6513 0
61 6511 -6513 0
37 6511 -6513 0
36 60 -6516 0
-36 -60 -6516 0
-36 60 6516 0
36 -60 6516 0
6516 6513 -6479 0
-6516 -6513 -6479 0
-6516 6513 6479 0
6516 -6513 6479 0
-36 -60 6515 0
-60 -6513 6515 0
-36 -6513 6515 0
36 60 -6515 0
60 6513 -6515 0
36 6513 -6515 0
35 59 -6518 0
-35 -59 -6518 0
-35 59 6518 0
35 -59 6518 0
6518 6515 -6478 0
-6518 -6515 -6478 0
-6518 6515 6478 0
6518 -6515 6478 0
-35 -59 6517 0
-59 -6515 6517 0
-35 -6515 6517 0
35 59 -6517 0
59 6515 -6517 0
35 6515 -6517 0
34 58 -6520 0
-34 -58 -6520 0
-34 58 6520 0
34 -58 6520 0
6520 6517 -6477 0
-6520 -6517 -6477 0
-6520 6517 6477 0
6520 -6517 6477 0
-34 -58 6519 0
-58 -6517 6519 0
-34 -6517 6519 0
34 58 -6519 0
58 6517 -6519 0
34 6517 -6519 0
33 57 -6522 0
-33 -57 -6522 0
-33 57 6522 0
33 -57 6522 0
6522 6519 -6476 0
-6522 -6519 -6476 0
-6522 6519 6476 0
6522 -6519 6476 0
-33 -57 6521 0
-57 -6519 6521 0
-33 -6519 6521 0
33 57 -6521 0
57 6519 -6521 0
33 6519 -6521 0
32 56 -6524 0
-32 -56 -6524 0
-32 56 6524 0
32 -56 6524 0
6524 6521 -6475 0
-6524 -6521 -6475 0
-6524 6521 6475 0
6524 -6521 6475 0
-32 -56 6523 0
-56 -6521 6523 0
-32 -6521 6523 0
32 56 -6523 0
56 6521 -6523 0
32 6521 -6523 0
31 55 -6526 0
-31 -55 -6526 0
-31 55 6526 0
31 -55 6526 0
6526 6523 -6474 0
-6526 -6523 -6474 0
-6526 6523 6474 0
6526 -6523 6474 0
-31 -55 6525 0
-55 -6523 6525 0
-31 -6523 6525 0
31 55 -6525 0
55 6523 -6525 0
31 6523 -6525 0
30 54 -6528 0
-30 -54 -6528 0
-30 54 6528 0
30 -54 6528 0
6528 6525 -6473 0
-6528 -6525 -6473 0
-6528 6525 6473 0
6528 -6525 6473 0
-30 -54 6527 0
-54 -6525 6527 0
-30 -6525 6527 0
30 54 -6527 0
54 6525 -6527 0
30 6525 -6527 0
29 53 -6530 0
-29 -53 -6530 0
-29 53 6530 0
29 -53 6530 0
6530 6527 -6472 0
-6530 -6527 -6472 0
-6530 6527 6472 0
6530 -6527 6472 0
-29 -53 6529 0
-53 -6527 6529 0
-29 -6527 6529 0
29 53 -6529 0
53 6527 -6529 0
29 6527 -6529 0
28 52 -6532 0
-28 -52 -6532 0
-28 52 6532 0
28 -52 6532 0
6532 6529 -6471 0
-6532 -6529 -6471 0
-6532 6529 6471 0
6532 -6529 6471 0
-28 -52 6531 0
-52 -6529 6531 0
-28 -6529 6531 0
28 52 -6531 0
52 6529 -6531 0
28 6529 -6531 0
27 51 -6534 0
-27 -51 -6534 0
-27 51 6534 0
27 -51 6534 0
6534 6531 -6470 0
-6534 -6531 -6470 0
-6534 6531 6470 0
6534 -6531 6470 0
-27 -51 6533 0
-51 -6531 6533 0
-27 -6531 6533 0
27 51 -6533 0
51 6531 -6533 0
27 6531 -6533 0
26 50 -6536 0
-26 -50 -6536 0
-26 50 6536 0
26 -50 6536 0
6536 6533 -6469 0
-6536 -6533 -6469 0
-6536 6533 6469 0
6536 -6533 6469 0
-26 -50 6535 0
-50 -6533 6535 0
-26 -6533 6535 0
26 50 -6535 0
50 6533 -6535 0
26 6533 -6535 0
25 49 -6537 0
-25 -49 -6537 0
-25 49 6537 0
25 -49 6537 0
6537 6535 -6468 0
-6537 -6535 -6468 0
-6537 6535 6468 0
6537 -6535 6468 0
-25 -49 6467 0
-49 -6535 6467 0
-25 -6535 6467 0
25 49 -6467 0
49 6535 -6467 0
25 6535 -6467 0
-6538 0
6364 -6538 0
-6364 6538 0
6365 -6467 0
-6365 6467 0
6366 -6468 0
-6366 6468 0
6367 -6469 0
-6367 6469 0
6368 -6470 0
-6368 6470 0
6369 -6471 0
-6369 6471 0
6370 -6472 0
-6370 6472 0
6371 -6473 0
-6371 6473 0
6372 -6474 0
-6372 6474 0
6373 -6475 0
-6373 6475 0
6374 -6476 0
-6374 6476 0
6375 -6477 0
-6375 6477 0
6376 -6478 0
-6376 6478 0
6377 -6479 0
-6377 6479 0
6378 -6480 0
-6378 6480 0
6379 -6481 0
-6379 6481 0
6380 -6482 0
-6380 6482 0
6381 -6483 0
-6381 6483 0
6382 -6484 0
-6382 6484 0
6383 -6485 0
-6383 6485 0
6384 -6486 0
-6384 6486 0
6385 -6487 0
-6385 6487 0
6386 -6488 0
-6386 6488 0
6387 -6489 0
-6387 6489 0
6388 -6490 0
-6388 6490 0
6389 -6491 0
-6389 6491 0
96 168 -6563 0
-96 -168 -6563 0
-96 168 6563 0
96 -168 6563 0
96 -6564 0
168 -6564 0
-96 -168 6564 0
95 167 -6566 0
-95 -167 -6566 0
-95 167 6566 0
95 -167 6566 0
6566 6564 -6562 0
-6566 -6564 -6562 0
-6566 6564 6562 0
6566 -6564 6562 0
-95 -167 6565 0
-167 -6564 6565 0
-95 -6564 6565 0
95 167 -6565 0
167 6564 -6565 0
95 6564 -6565 0
94 166 -6568 0
-94 -166 -6568 0
-94 166 6568 0
94 -166 6568 0
6568 6565 -6561 0
-6568 -6565 -6561 0
-6568 6565 6561 0
6568 -6565 6561 0
-94 -166 6567 0
-166 -6565 6567 0
-94 -6565 6567 0
94 166 -6567 0
166 6565 -6567 0
94 6565 -6567 0
93 165 -6570 0
-93 -165 -6570 0
-93 165 6570 0
93 -165 6570 0
6570 6567 -6560 0
-6570 -6567 -6560 0
-6570 6567 6560 0
6570 -6567 6560 0
-93 -165 6569 0
-165 -6567 6569 0
-93 -6567 6569 0
93 165 -6569 0
165 6567 -6569 0
93 6567 -6569 0
92 164 -6572 0
-92 -164 -6572 0
-92 164 6572 0
92 -164 6572 0
6572 6569 -6559 0
-6572 -6569 -6559 0
-6572 6569 6559 0
6572 -6569 6559 0
-92 -164 6571 0
-164 -6569 6571 0
-92 -6569 6571 0
92 164 -6571 0
164 6569 -6571 0
92 6569 -6571 0
91 163 -6574 0
-91 -163 -6574 0
-91 163 6574 0
91 -163 6574 0
6574 6571 -6558 0
-6574 -6571 -6558 0
-6574 6571 6558 0
6574 -6571 6558 0
-91 -163 6573 0
-163 -6571 6573 0
-91 -6571 6573 0
91 163 -6573 0
163 6571 -6573 0
91 6571 -6573 0
90 162 -6576 0
-90 -162 -6576 0
-90 162 6576 0
90 -162 6576 0
6576 6573 -6557 0
-6576 -6573 -6557 0
-6576 6573 6557 0
6576 -6573 6557 0
-90 -162 6575 0
-162 -6573 6575 0
-90 -6573 6575 0
90 162 -6575 0
162 6573 -6575 0
90 6573 -6575 0
89 161 -6578 0
-89 -161 -6578 0
-89 161 6578 0
89 -161 6578 0
6578 6575 -6556 0
-6578 -6575 -6556 0
-6578 6575 6556 0
6578 -6575 6556 0
-89 -161 6577 0
-161 -6575 6577 0
-89 -6575 6577 0
89 161 -6577 0
161 6575 -6577 0
89 6575 -6577 0
88 160 -6580 0
-88 -160 -6580 0
-88 160 6580 0
88 -160 6580 0
6580 6577 -6555 0
-6580 -6577 -6555 0
-6580 6577 6555 0
6580 -6577 6555 0
-88 -160 6579 0
-160 -6577 6579 0
-88 -6577 6579 0
88 160 -6579 0
160 6577 -6579 0
88 6577 -6579 0
87 159 -6582 0
-87 -159 -6582 0
-87 159 6582 0
87 -159 6582 0
6582 6579 -6554 0
-6582 -6579 -6554 0
-6582 6579 6554 0
6582 -6579 6554 0
-87 -159 6581 0
-159 -6579 6581 0
-87 -6579 6581 0
87 159 -6581 0
159 6579 -6581 0
87 6579 -6581 0
86 158 -6584 0
-86 -158 -6584 0
-86 158 6584 0
86 -158 6584 0
6584 6581 -6553 0
-6584 -6581 -6553 0
-6584 6581 6553 0
6584 -6581 6553 0
-86 -158 6583 0
-158 -6581 6583 0
-86 -6581 6583 0
86 158 -6583 0
158 6581 -6583 0
86 6581 -6583 0
85 157 -6586 0
-85 -157 -6586 0
-85 157 6586 0
85 -157 6586 0
6586 6583 -6552 0
-6586 -6583 -6552 0
-6586 6583 6552 0
6586 -6583 6552 0
-85 -157 6585 0
-157 -6583 6585 0
-85 -6583 6585 0
85 157 -6585 0
157 6583 -6585 0
85 6583 -6585 0
84 156 -6588 0
-84 -156 -6588 0
-84 156 6588 0
84 -156 6588 0
6588 6585 -6551 0
-6588 -6585 -6551 0
-6588 6585 6551 0
6588 -6585 6551 0
-84 -156 6587 0
-156 -6585 6587 0
-84 -6585 6587 0
84 156 -6587 0
156 6585 -6587 0
84 6585 -6587 0
83 155 -6590 0
-83 -155 -6590 0
-83 155 6590 0
83 -155 6590 0
6590 6587 -6550 0
-6590 -6587 -6550 0
-6590 6587 6550 0
6590 -6587 6550 0
-83 -155 6589 0
-155 -6587 6589 0
-83 -6587 6589 0
83 155 -6589 0
155 6587 -6589 0
83 6587 -6589 0
82 154 -6592 0
-82 -154 -6592 0
-82 154 6592 0
82 -154 6592 0
6592 6589 -6549 0
-6592 -6589 -6549 0
-6592 6589 6549 0
6592 -6589 6549 0
-82 -154 6591 0
-154 -6589 6591 0
-82 -6589 6591 0
82 154 -6591 0
154 6589 -6591 0
82 6589 -6591 0
81 153 -6594 0
-81 -153 -6594 0
-81 153 6594 0
81 -153 6594 0
6594 6591 -6548 0
-6594 -6591 -6548 0
-6594 6591 6548 0
6594 -6591 6548 0
-81 -153 6593 0
-153 -6591 6593 0
-81 -6591 6593 0
81 153 -6593 0
153 6591 -6593 0
81 6591 -6593 0
80 152 -6596 0
-80 -152 -6596 0
-80 152 6596 0
80 -152 6596 0
6596 6593 -6547 0
-6596 -6593 -6547 0
-6596 6593 6547 0
6596 -6593 6547 0
-80 -152 6595 0
-152 -6593 6595 0
-80 -6593 6595 0
80 152 -6595 0
152 6593 -6595 0
80 6593 -6595 0
79 151 -6598 0
-79 -151 -6598 0
-79 151 6598 0
79 -151 6598 0
6598 6595 -6546 0
-6598 -6595 -6546 0
-6598 6595 6546 0
6598 -6595 6546 0
-79 -151 6597 0
-151 -6595 6597 0
-79 -6595 6597 0
79 151 -6597 0
151 6595 -6597 0
79 6595 -6597 0
78 150 -6600 0
-78 -150 -6600 0
-78 150 6600 0
78 -150 6600 0
6600 6597 -6545 0
-6600 -6597 -6545 0
-6600 6597 6545 0
6600 -6597 6545 0
-78 -150 6599 0
-150 -6597 6599 0
-78 -6597 6599 0
78 150 -6599 0
150 6597 -6599 0
78 6597 -6599 0
77 149 -6602 0
-77 -149 -6602 0
-77 149 6602 0
77 -149 6602 0
6602 6599 -6544 0
-6602 -6599 -6544 0
-6602 6599 6544 0
6602 -6599 6544 0
-77 -149 6601 0
-149 -6599 6601 0
-77 -6599 6601 0
77 149 -6601 0
149 6599 -6601 0
77 6599 -6601 0
76 148 -6604 0
-76 -148 -6604 0
-76 148 6604 0
76 -148 6604 0
6604 6601 -6543 0
-6604 -6601 -6543 0
-6604 6601 6543 0
6604 -6601 6543 0
-76 -148 6603 0
-148 -6601 6603 0
-76 -6601 6603 0
76 148 -6603 0
148 6601 -6603 0
76 6601 -6603 0
75 147 -6606 0
-75 -147 -6606 0
-75 147 6606 0
75 -147 6606 0
6606 6603 -6542 0
-6606 -6603 -6542 0
-6606 6603 6542 0
6606 -6603 6542 0
-75 -147 6605 0
-147 -6603 6605 0
-75 -6603 6605 0
75 147 -6605 0
147 6603 -6605 0
75 6603 -6605 0
74 146 -6608 0
-74 -146 -6608 0
-74 146 6608 0
74 -146 6608 0
6608 6605 -6541 0
-6608 -6605 -6541 0
-6608 6605 6541 0
6608 -6605 6541 0
-74 -146 6607 0
-146 -6605 6607 0
-74 -6605 6607 0
74 146 -6607 0
146 6605 -6607 0
74 6605 -6607 0
73 145 -6609 0
-73 -145 -6609 0
-73 145 6609 0
73 -145 6609 0
6609 6607 -6540 0
-6609 -6607 -6540 0
-6609 6607 6540 0
6609 -6607 6540 0
-73 -145 6539 0
-145 -6607 6539 0
-73 -6607 6539 0
73 145 -6539 0
145 6607 -6539 0
73 6607 -6539 0
-6610 0
6364 -6610 0
-6364 6610 0
6365 -6539 0
-6365 6539 0
6366 -6540 0
-6366 6540 0
6367 -6541 0
-6367 6541 0
6368 -6542 0
-6368 6542 0
6369 -6543 0
-6369 6543 0
6370 -6544 0
-6370 6544 0
6371 -6545 0
-6371 6545 0
6372 -6546 0
-6372 6546 0
6373 -6547 0
-6373 6547 0
6374 -6548 0
-6374 6548 0
6375 -6549 0
-6375 6549 0
6376 -6550 0
-6376 6550 0
6377 -6551 0
-6377 6551 0
6378 -6552 0
-6378 6552 0
6379 -6553 0
-6379 6553 0
6380 -6554 0
-6380 6554 0
6381 -6555 0
-6381 6555 0
6382 -6556 0
-6382 6556 0
6383 -6557 0
-6383 6557 0
6384 -6558 0
-6384 6558 0
6385 -6559 0
-6385 6559 0
6386 -6560 0
-6386 6560 0
6387 -6561 0
-6387 6561 0
6388 -6562 0
-6388 6562 0
6389 -6563 0
-6389 6563 0
-6611 0
-6612 0
-6613 0
6639 216 -6666 0
-6639 -216 -6666 0
-6639 216 6666 0
6639 -216 6666 0
6639 -6667 0
216 -6667 0
-6639 -216 6667 0
6638 215 -6669 0
-6638 -215 -6669 0
-6638 215 6669 0
6638 -215 6669 0
6669 6667 -6665 0
-6669 -6667 -6665 0
-6669 6667 6665 0
6669 -6667 6665 0
-6638 -215 6668 0
-215 -6667 6668 0
-6638 -6667 6668 0
6638 215 -6668 0
215 6667 -6668 0
6638 6667 -6668 0
6637 214 -6671 0
-6637 -214 -6671 0
-6637 214 6671 0
6637 -214 6671 0
6671 6668 -6664 0
-6671 -6668 -6664 0
-6671 6668 6664 0
6671 -6668 6664 0
-6637 -214 6670 0
-214 -6668 6670 0
-6637 -6668 6670 0
6637 214 -6670 0
214 6668 -6670 0
6637 6668 -6670 0
6636 213 -6673 0
-6636 -213 -6673 0
-6636 213 6673 0
6636 -213 6673 0
6673 6670 -6663 0
-6673 -6670 -6663 0
-6673 6670 6663 0
6673 -6670 6663 0
-6636 -213 6672 0
-213 -6670 6672 0
-6636 -6670 6672 0
6636 213 -6672 0
213 6670 -6672 0
6636 6670 -6672 0
6635 212 -6675 0
-6635 -212 -6675 0
-6635 212 6675 0
6635 -212 6675 0
6675 6672 -6662 0
-6675 -6672 -6662 0
-6675 6672 6662 0
6675 -6672 6662 0
-6635 -212 6674 0
-212 -6672 6674 0
-6635 -6672 6674 0
6635 212 -6674 0
212 6672 -6674 0
6635 6672 -6674 0
6634 211 -6677 0
-6634 -211 -6677 0
-6634 211 6677 0
6634 -211 6677 0
6677 6674 -6661 0
-6677 -6674 -6661 0
-6677 6674 6661 0
6677 -6674 6661 0
-6634 -211 6676 0
-211 -6674 6676 0
-6634 -6674 6676 0
6634 211 -6676 0
211 6674 -6676 0
6634 6674 -6676 0
6633 210 -6679 0
-6633 -210 -6679 0
-6633 210 6679 0
6633 -210 6679 0
6679 6676 -6660 0
-6679 -6676 -6660 0
-6679 6676 6660 0
6679 -6676 6660 0
-6633 -210 6678 0
-210 -6676 6678 0
-6633 -6676 6678 0
6633 210 -6678 0
210 6676 -6678 0
6633 6676 -6678 0
6632 209 -6681 0
-6632 -209 -6681 0
-6632 209 6681 0
6632 -209 6681 0
6681 6678 -6659 0
-6681 -6678 -6659 0
-6681 6678 6659 0
6681 -6678 6659 0
-6632 -209 6680 0
-209 -6678 6680 0
-6632 -6678 6680 0
6632 209 -6680 0
209 6678 -6680 0
6632 6678 -6680 0
6631 208 -6683 0
-6631 -208 -6683 0
-6631 208 6683 0
6631 -208 6683 0
6683 6680 -6658 0
-6683 -6680 -6658 0
-6683 6680 6658 0
6683 -6680 6658 0
-6631 -208 6682 0
-208 -6680 6682 0
-6631 -6680 6682 0
6631 208 -6682 0
208 6680 -6682 0
6631 6680 -6682 0
6630 207 -6685 0
-6630 -207 -6685 0
-6630 207 6685 0
6630 -207 6685 0
6685 6682 -6657 0
-6685 -6682 -6657 0
-6685 6682 6657 0
6685 -6682 6657 0
-6630 -207 6684 0
-207 -6682 6684 0
-6630 -6682 6684 0
6630 207 -6684 0
207 6682 -6684 0
6630 6682 -6684 0
6629 206 -6687 0
-6629 -206 -6687 0
-6629 206 6687 0
6629 -206 6687 0
6687 6684 -6656 0
-6687 -6684 -6656 0
-6687 6684 6656 0
6687 -6684 6656 0
-6629 -206 6686 0
-206 -6684 6686 0
-6629 -6684 6686 0
6629 206 -6686 0
206 6684 -6686 0
6629 6684 -6686 0
6628 205 -6689 0
-6628 -205 -6689 0
-6628 205 6689 0
6628 -205 6689 0
6689 6686 -6655 0
-6689 -6686 -6655 0
-6689 6686 6655 0
6689 -6686 6655 0
-6628 -205 6688 0
-205 -6686 6688 0
-6628 -6686 6688 0
6628 205 -6688 0
205 6686 -6688 0
6628 6686 -6688 0
6627 204 -6691 0
-6627 -204 -6691 0
-6627 204 6691 0
6627 -204 6691 0
6691 6688 -6654 0
-6691 -6688 -6654 0
-6691 6688 6654 0
6691 -6688 6654 0
-6627 -204 6690 0
-204 -6688 6690 0
-6627 -6688 6690 0
6627 204 -6690 0
204 6688 -6690 0
6627 6688 -6690 0
6626 203 -6693 0
-6626 -203 -6693 0
-6626 203 6693 0
6626 -203 6693 0
6693 6690 -6653 0
-6693 -6690 -6653 0
-6693 6690 6653 0
6693 -6690 6653 0
-6626 -203 6692 0
-203 -6690 6692 0
-6626 -6690 6692 0
6626 203 -6692 0
203 6690 -6692 0
6626 6690 -6692 0
6625 202 -6695 0
-6625 -202 -6695 0
-6625 202 6695 0
6625 -202 6695 0
6695 6692 -6652 0
-6695 -6692 -6652 0
-6695 6692 6652 0
6695 -6692 6652 0
-6625 -202 6694 0
-202 -6692 6694 0
-6625 -6692 6694 0
6625 202 -6694 0
202 6692 -6694 0
6625 6692 -6694 0
6624 201 -6697 0
-6624 -201 -6697 0
-6624 201 6697 0
6624 -201 6697 0
6697 6694 -6651 0
-6697 -6694 -6651 0
-6697 6694 6651 0
6697 -6694 6651 0
-6624 -201 6696 0
-201 -6694 6696 0
-6624 -6694 6696 0
6624 201 -6696 0
201 6694 -6696 0
6624 6694 -6696 0
6623 200 -6699 0
-6623 -200 -6699 0
-6623 200 6699 0
6623 -200 6699 0
6699 6696 -6650 0
-6699 -6696 -6650 0
-6699 6696 6650 0
6699 -6696 6650 0
-6623 -200 6698 0
-200 -6696 6698 0
-6623 -6696 6698 0
6623 200 -6698 0
200 6696 -6698 0
6623 6696 -6698 0
6622 199 -6701 0
-6622 -199 -6701 0
-6622 199 6701 0
6622 -199 6701 0
6701 6698 -6649 0
-6701 -6698 -6649 0
-6701 6698 6649 0
6701 -6698 6649 0
-6622 -199 6700 0
-199 -6698 6700 0
-6622 -6698 6700 0
6622 199 -6700 0
199 6698 -6700 0
6622 6698 -6700 0
6621 198 -6703 0
-6621 -198 -6703 0
-6621 198 6703 0
6621 -198 6703 0
6703 6700 -6648 0
-6703 -6700 -6648 0
-6703 6700 6648 0
6703 -6700 6648 0
-6621 -198 6702 0
-198 -6700 6702 0
-6621 -6700 6702 0
6621 198 -6702 0
198 6700 -6702 0
6621 6700 -6702 0
6620 197 -6705 0
-6620 -197 -6705 0
-6620 197 6705 0
6620 -197 6705 0
6705 6702 -6647 0
-6705 -6702 -6647 0
-6705 6702 6647 0
6705 -6702 6647 0
-6620 -197 6704 0
-197 -6702 6704 0
-6620 -6702 6704 0
6620 197 -6704 0
197 6702 -6704 0
6620 6702 -6704 0
6619 196 -6707 0
-6619 -196 -6707 0
-6619 196 6707 0
6619 -196 6707 0
6707 6704 -6646 0
-6707 -6704 -6646 0
-6707 6704 6646 0
6707 -6704 6646 0
-6619 -196 6706 0
-196 -6704 6706 0
-6619 -6704 6706 0
6619 196 -6706 0
196 6704 -6706 0
6619 6704 -6706 0
6618 195 -6709 0
-6618 -195 -6709 0
-6618 195 6709 0
6618 -195 6709 0
6709 6706 -6645 0
-6709 -6706 -6645 0
-6709 6706 6645 0
6709 -6706 6645 0
-6618 -195 6708 0
-195 -6706 6708 0
-6618 -6706 6708 0
6618 195 -6708 0
195 6706 -6708 0
6618 6706 -6708 0
6617 194 -6711 0
-6617 -194 -6711 0
-6617 194 6711 0
6617 -194 6711 0
6711 6708 -6644 0
-6711 -6708 -6644 0
-6711 6708 6644 0
6711 -6708 6644 0
-6617 -194 6710 0
-194 -6708 6710 0
-6617 -6708 6710 0
6617 194 -6710 0
194 6708 -6710 0
6617 6708 -6710 0
6616 193 -6713 0
-6616 -193 -6713 0
-6616 193 6713 0
6616 -193 6713 0
6713 6710 -6643 0
-6713 -6710 -6643 0
-6713 6710 6643 0
6713 -6710 6643 0
-6616 -193 6712 0
-193 -6710 6712 0
-6616 -6710 6712 0
6616 193 -6712 0
193 6710 -6712 0
6616 6710 -6712 0
6615 6613 -6715 0
-6615 -6613 -6715 0
-6615 6613 6715 0
6615 -6613 6715 0
6715 6712 -6642 0
-6715 -6712 -6642 0
-6715 6712 6642 0
6715 -6712 6642 0
-6615 -6613 6714 0
-6613 -6712 6714 0
-6615 -6712 6714 0
6615 6613 -6714 0
6613 6712 -6714 0
6615 6712 -6714 0
6614 6612 -6716 0
-6614 -6612 -6716 0
-6614 6612 6716 0
6614 -6612 6716 0
6716 6714 -6641 0
-6716 -6714 -6641 0
-6716 6714 6641 0
6716 -6714 6641 0
-6614 -6612 6640 0
-6612 -6714 6640 0
-6614 -6714 6640 0
6614 6612 -6640 0
6612 6714 -6640 0
6614 6714 -6640 0
-6640 6611 0
6640 -6611 0
-6641 5941 0
6641 -5941 0
-6642 5942 0
6642 -5942 0
-6643 5943 0
6643 -5943 0
-6644 5944 0
6644 -5944 0
-6645 5945 0
6645 -5945 0
-6646 5946 0
6646 -5946 0
-6647 5947 0
6647 -5947 0
-6648 5948 0
6648 -5948 0
-6649 5949 0
6649 -5949 0
-6650 5950 0
6650 -5950 0
-6651 5951 0
6651 -5951 0
-6652 5952 0
6652 -5952 0
-6653 5953 0
6653 -5953 0
-6654 5954 0
6654 -5954 0
-6655 5955 0
6655 -5955 0
-6656 5956 0
6656 -5956 0
-6657 5957 0
6657 -5957 0
-6658 5958 0
6658 -5958 0
-6659 5959 0
6659 -5959 0
-6660 5960 0
6660 -5960 0
-6661 5961 0
6661 -5961 0
-6662 5962 0
6662 -5962 0
-6663 5963 0
6663 -5963 0
-6664 5964 0
6664 -5964 0
-6665 5965 0
6665 -5965 0
-6666 5966 0
6666 -5966 0
72 144 -6741 0
-72 -144 -6741 0
-72 144 6741 0
72 -144 6741 0
72 -6742 0
144 -6742 0
-72 -144 6742 0
71 143 -6744 0
-71 -143 -6744 0
-71 143 6744 0
71 -143 6744 0
6744 6742 -6740 0
-6744 -6742 -6740 0
-6744 6742 6740 0
6744 -6742 6740 0
-71 -143 6743 0
-143 -6742 6743 0
-71 -6742 6743 0
71 143 -6743 0
143 6742 -6743 0
71 6742 -6743 0
70 142 -6746 0
-70 -142 -6746 0
-70 142 6746 0
70 -142 6746 0
6746 6743 -6739 0
-6746 -6743 -6739 0
-6746 6743 6739 0
6746 -6743 6739 0
-70 -142 6745 0
-142 -6743 6745 0
-70 -6743 6745 0
70 142 -6745 0
142 6743 -6745 0
70 6743 -6745 0
69 141 -6748 0
-69 -141 -6748 0
-69 141 6748 0
69 -141 6748 0
6748 6745 -6738 0
-6748 -6745 -6738 0
-6748 6745 6738 0
6748 -6745 6738 0
-69 -141 6747 0
-141 -6745 6747 0
-69 -6745 6747 0
69 141 -6747 0
141 6745 -6747 0
69 6745 -6747 0
68 140 -6750 0
-68 -140 -6750 0
-68 140 6750 0
68 -140 6750 0
6750 6747 -6737 0
-6750 -6747 -6737 0
-6750 6747 6737 0
6750 -6747 6737 0
-68 -140 6749 0
-140 -6747 6749 0
-68 -6747 6749 0
68 140 -6749 0
140 6747 -6749 0
68 6747 -6749 0
67 139 -6752 0
-67 -139 -6752 0
-67 139 6752 0
67 -139 6752 0
6752 6749 -6736 0
-6752 -6749 -6736 0
-6752 6749 6736 0
6752 -6749 6736 0
-67 -139 6751 0
-139 -6749 6751 0
-67 -6749 6751 0
67 139 -6751 0
139 6749 -6751 0
67 6749 -6751 0
66 138 -6754 0
-66 -138 -6754 0
-66 138 6754 0
66 -138 6754 0
6754 6751 -6735 0
-6754 -6751 -6735 0
-6754 6751 6735 0
6754 -6751 6735 0
-66 -138 6753 0
-138 -6751 6753 0
-66 -6751 6753 0
66 138 -6753 0
138 6751 -6753 0
66 6751 -6753 0
65 137 -6756 0
-65 -137 -6756 0
-65 137 6756 0
65 -137 6756 0
6756 6753 -6734 0
-6756 -6753 -6734 0
-6756 6753 6734 0
6756 -6753 6734 0
-65 -137 6755 0
-137 -6753 6755 0
-65 -6753 6755 0
65 137 -6755 0
137 6753 -6755 0
65 6753 -6755 0
64 136 -6758 0
-64 -136 -6758 0
-64 136 6758 0
64 -136 6758 0
6758 6755 -6733 0
-6758 -6755 -6733 0
-6758 6755 6733 0
6758 -6755 6733 0
-64 -136 6757 0
-136 -6755 6757 0
-64 -6755 6757 0
64 136 -6757 0
136 6755 -6757 0
64 6755 -6757 0
63 135 -6760 0
-63 -135 -6760 0
-63 135 6760 0
63 -135 6760 0
6760 6757 -6732 0
-6760 -6757 -6732 0
-6760 6757 6732 0
6760 -6757 6732 0
-63 -135 6759 0
-135 -6757 6759 0
-63 -6757 6759 0
63 135 -6759 0
135 6757 -6759 0
63 6757 -6759 0
62 134 -6762 0
-62 -134 -6762 0
-62 134 6762 0
62 -134 6762 0
6762 6759 -6731 0
-6762 -6759 -6731 0
-6762 6759 6731 0
6762 -6759 6731 0
-62 -134 6761 0
-134 -6759 6761 0
-62 -6759 6761 0
62 134 -6761 0
134 6759 -6761 0
62 6759 -6761 0
61 133 -6764 0
-61 -133 -6764 0
-61 133 6764 0
61 -133 6764 0
6764 6761 -6730 0
-6764 -6761 -6730 0
-6764 6761 6730 0
6764 -6761 6730 0
-61 -133 6763 0
-133 -6761 6763 0
-61 -6761 6763 0
61 133 -6763 0
133 6761 -6763 0
61 6761 -6763 0
60 132 -6766 0
-60 -132 -6766 0
-60 132 6766 0
60 -132 6766 0
6766 6763 -6729 0
-6766 -6763 -6729 0
-6766 6763 6729 0
6766 -6763 6729 0
-60 -132 6765 0
-132 -6763 6765 0
-60 -6763 6765 0
60 132 -6765 0
132 6763 -6765 0
60 6763 -6765 0
59 131 -6768 0
-59 -131 -6768 0
-59 131 6768 0
59 -131 6768 0
6768 6765 -6728 0
-6768 -6765 -6728 0
-6768 6765 6728 0
6768 -6765 6728 0
-59 -131 6767 0
-131 -6765 6767 0
-59 -6765 6767 0
59 131 -6767 0
131 6765 -6767 0
59 6765 -6767 0
58 130 -6770 0
-58 -130 -6770 0
-58 130 6770 0
58 -130 6770 0
6770 6767 -6727 0
-6770 -6767 -6727 0
-6770 6767 6727 0
6770 -6767 6727 0
-58 -130 6769 0
-130 -6767 6769 0
-58 -6767 6769 0
58 130 -6769 0
130 6767 -6769 0
58 6767 -6769 0
57 129 -6772 0
-57 -129 -6772 0
-57 129 6772 0
57 -129 6772 0
6772 6769 -6726 0
-6772 -6769 -6726 0
-6772 6769 6726 0
6772 -6769 6726 0
-57 -129 6771 0
-129 -6769 6771 0
-57 -6769 6771 0
57 129 -6771 0
129 6769 -6771 0
57 6769 -6771 0
56 128 -6774 0
-56 -128 -6774 0
-56 128 6774 0
56 -128 6774 0
6774 6771 -6725 0
-6774 -6771 -6725 0
-6774 6771 6725 0
6774 -6771 6725 0
-56 -128 6773 0
-128 -6771 6773 0
-56 -6771 6773 0
56 128 -6773 0
128 6771 -6773 0
56 6771 -6773 0
55 127 -6776 0
-55 -127 -6776 0
-55 127 6776 0
55 -127 6776 0
6776 6773 -6724 0
-6776 -6773 -6724 0
-6776 6773 6724 0
6776 -6773 6724 0
-55 -127 6775 0
-127 -6773 6775 0
-55 -6773 6775 0
55 127 -6775 0
127 6773 -6775 0
55 6773 -6775 0
54 126 -6778 0
-54 -126 -6778 0
-54 126 6778 0
54 -126 6778 0
6778 6775 -6723 0
-6778 -6775 -6723 0
-6778 6775 6723 0
6778 -6775 6723 0
-54 -126 6777 0
-126 -6775 6777 0
-54 -6775 6777 0
54 126 -6777 0
126 6775 -6777 0
54 6775 -6777 0
53 125 -6780 0
-53 -125 -6780 0
-53 125 6780 0
53 -125 6780 0
6780 6777 -6722 0
-6780 -6777 -6722 0
-6780 6777 6722 0
6780 -6777 6722 0
-53 -125 6779 0
-125 -6777 6779 0
-53 -6777 6779 0
53 125 -6779 0
125 6777 -6779 0
53 6777 -6779 0
52 124 -6782 0
-52 -124 -6782 0
-52 124 6782 0
52 -124 6782 0
6782 6779 -6721 0
-6782 -6779 -6721 0
-6782 6779 6721 0
6782 -6779 6721 0
-52 -124 6781 0
-124 -6779 6781 0
-52 -6779 6781 0
52 124 -6781 0
124 6779 -6781 0
52 6779 -6781 0
51 123 -6784 0
-51 -123 -6784 0
-51 123 6784 0
51 -123 6784 0
6784 6781 -6720 0
-6784 -6781 -6720 0
-6784 6781 6720 0
6784 -6781 6720 0
-51 -123 6783 0
-123 -6781 6783 0
-51 -6781 6783 0
51 123 -6783 0
123 6781 -6783 0
51 6781 -6783 0
50 122 -6786 0
-50 -122 -6786 0
-50 122 6786 0
50 -122 6786 0
6786 6783 -6719 0
-6786 -6783 -6719 0
-6786 6783 6719 0
6786 -6783 6719 0
-50 -122 6785 0
-122 -6783 6785 0
-50 -6783 6785 0
50 122 -6785 0
122 6783 -6785 0
50 6783 -6785 0
49 121 -6787 0
-49 -121 -6787 0
-49 121 6787 0
49 -121 6787 0
6787 6785 -6718 0
-6787 -6785 -6718 0
-6787 6785 6718 0
6787 -6785 6718 0
-49 -121 6717 0
-121 -6785 6717 0
-49 -6785 6717 0
49 121 -6717 0
121 6785 -6717 0
49 6785 -6717 0
-6788 0
6614 -6788 0
-6614 6788 0
6615 -6717 0
-6615 6717 0
6616 -6718 0
-6616 6718 0
6617 -6719 0
-6617 6719 0
6618 -6720 0
-6618 6720 0
6619 -6721 0
-6619 6721 0
6620 -6722 0
-6620 6722 0
6621 -6723 0
-6621 6723 0
6622 -6724 0
-6622 6724 0
6623 -6725 0
-6623 6725 0
6624 -6726 0
-6624 6726 0
6625 -6727 0
-6625 6727 0
6626 -6728 0
-6626 6728 0
6627 -6729 0
-6627 6729 0
6628 -6730 0
-6628 6730 0
6629 -6731 0
-6629 6731 0
6630 -6732 0
-6630 6732 0
6631 -6733 0
-6631 6733 0
6632 -6734 0
-6632 6734 0
6633 -6735 0
-6633 6735 0
6634 -6736 0
-6634 6736 0
6635 -6737 0
-6635 6737 0
6636 -6738 0
-6636 6738 0
6637 -6739 0
-6637 6739 0
6638 -6740 0
-6638 6740 0
6639 -6741 0
-6639 6741 0
168 192 -6813 0
-168 -192 -6813 0
-168 192 6813 0
168 -192 6813 0
168 -6814 0
192 -6814 0
-168 -192 6814 0
167 191 -6816 0
-167 -191 -6816 0
-167 191 6816 0
167 -191 6816 0
6816 6814 -6812 0
-6816 -6814 -6812 0
-6816 6814 6812 0
6816 -6814 6812 0
-167 -191 6815 0
-191 -6814 6815 0
-167 -6814 6815 0
167 191 -6815 0
191 6814 -6815 0
167 6814 -6815 0
166 190 -6818 0
-166 -190 -6818 0
-166 190 6818 0
166 -190 6818 0
6818 6815 -6811 0
-6818 -6815 -6811 0
-6818 6815 6811 0
6818 -6815 6811 0
-166 -190 6817 0
-190 -6815 6817 0
-166 -6815 6817 0
166 190 -6817 0
190 6815 -6817 0
166 6815 -6817 0
165 189 -6820 0
-165 -189 -6820 0
-165 189 6820 0
165 -189 6820 0
6820 6817 -6810 0
-6820 -6817 -6810 0
-6820 6817 6810 0
6820 -6817 6810 0
-165 -189 6819 0
-189 -6817 6819 0
-165 -6817 6819 0
165 189 -6819 0
189 6817 -6819 0
165 6817 -6819 0
164 188 -6822 0
-164 -188 -6822 0
-164 188 6822 0
164 -188 6822 0
6822 6819 -6809 0
-6822 -6819 -6809 0
-6822 6819 6809 0
6822 -6819 6809 0
-164 -188 6821 0
-188 -6819 6821 0
-164 -6819 6821 0
164 188 -6821 0
188 6819 -6821 0
164 6819 -6821 0
163 187 -6824 0
-163 -187 -6824 0
-163 187 6824 0
163 -187 6824 0
6824 6821 -6808 0
-6824 -6821 -6808 0
-6824 6821 6808 0
6824 -6821 6808 0
-163 -187 6823 0
-187 -6821 6823 0
-163 -6821 6823 0
163 187 -6823 0
187 6821 -6823 0
163 6821 -6823 0
162 186 -6826 0
-162 -186 -6826 0
-162 186 6826 0
162 -186 6826 0
6826 6823 -6807 0
-6826 -6823 -6807 0
-6826 6823 6807 0
6826 -6823 6807 0
-162 -186 6825 0
-186 -6823 6825 0
-162 -6823 6825 0
162 186 -6825 0
186 6823 -6825 0
162 6823 -6825 0
161 185 -6828 0
-161 -185 -6828 0
-161 185 6828 0
161 -185 6828 0
6828 6825 -6806 0
-6828 -6825 -6806 0
-6828 6825 6806 0
6828 -6825 6806 0
-161 -185 6827 0
-185 -6825 6827 0
-161 -6825 6827 0
161 185 -6827 0
185 6825 -6827 0
161 6825 -6827 0
160 184 -6830 0
-160 -184 -6830 0
-160 184 6830 0
160 -184 6830 0
6830 6827 -6805 0
-6830 -6827 -6805 0
-6830 6827 6805 0
6830 -6827 6805 0
-160 -184 6829 0
-184 -6827 6829 0
-160 -6827 6829 0
160 184 -6829 0
184 6827 -6829 0
160 6827 -6829 0
159 183 -6832 0
-159 -183 -6832 0
-159 183 6832 0
159 -183 6832 0
6832 6829 -6804 0
-6832 -6829 -6804 0
-6832 6829 6804 0
6832 -6829 6804 0
-159 -183 6831 0
-183 -6829 6831 0
-159 -6829 6831 0
159 183 -6831 0
183 6829 -6831 0
159 6829 -6831 0
158 182 -6834 0
-158 -182 -6834 0
-158 182 6834 0
158 -182 6834 0
6834 6831 -6803 0
-6834 -6831 -6803 0
-6834 6831 6803 0
6834 -6831 6803 0
-158 -182 6833 0
-182 -6831 6833 0
-158 -6831 6833 0
158 182 -6833 0
182 6831 -6833 0
158 6831 -6833 0
157 181 -6836 0
-157 -181 -6836 0
-157 181 6836 0
157 -181 6836 0
6836 6833 -6802 0
-6836 -6833 -6802 0
-6836 6833 6802 0
6836 -6833 6802 0
-157 -181 6835 0
-181 -6833 6835 0
-157 -6833 6835 0
157 181 -6835 0
181 6833 -6835 0
157 6833 -6835 0
156 180 -6838 0
-156 -180 -6838 0
-156 180 6838 0
156 -180 6838 0
6838 6835 -6801 0
-6838 -6835 -6801 0
-6838 6835 6801 0
6838 -6835 6801 0
-156 -180 6837 0
-180 -6835 6837 0
-156 -6835 6837 0
156 180 -6837 0
180 6835 -6837 0
156 6835 -6837 0
155 179 -6840 0
-155 -179 -6840 0
-155 179 6840 0
155 -179 6840 0
6840 6837 -6800 0
-6840 -6837 -6800 0
-6840 6837 6800 0
6840 -6837 6800 0
-155 -179 6839 0
-179 -6837 6839 0
-155 -6837 6839 0
155 179 -6839 0
179 6837 -6839 0
155 6837 -6839 0
154 178 -6842 0
-154 -178 -6842 0
-154 178 6842 0
154 -178 6842 0
6842 6839 -6799 0
-6842 -6839 -6799 0
-6842 6839 6799 0
6842 -6839 6799 0
-154 -178 6841 0
-178 -6839 6841 0
-154 -6839 6841 0
154 178 -6841 0
178 6839 -6841 0
154 6839 -6841 0
153 177 -6844 0
-153 -177 -6844 0
-153 177 6844 0
153 -177 6844 0
6844 6841 -6798 0
-6844 -6841 -6798 0
-6844 6841 6798 0
6844 -6841 6798 0
-153 -177 6843 0
-177 -6841 6843 0
-153 -6841 6843 0
153 177 -6843 0
177 6841 -6843 0
153 6841 -6843 0
152 176 -6846 0
-152 -176 -6846 0
-152 176 6846 0
152 -176 6846 0
6846 6843 -6797 0
-6846 -6843 -6797 0
-6846 6843 6797 0
6846 -6843 6797 0
-152 -176 6845 0
-176 -6843 6845 0
-152 -6843 6845 0
152 176 -6845 0
176 6843 -6845 0
152 6843 -6845 0
151 175 -6848 0
-151 -175 -6848 0
-151 175 6848 0
151 -175 6848 0
6848 6845 -6796 0
-6848 -6845 -6796 0
-6848 6845 6796 0
6848 -6845 6796 0
-151 -175 6847 0
-175 -6845 6847 0
-151 -6845 6847 0
151 175 -6847 0
175 6845 -6847 0
151 6845 -6847 0
150 174 -6850 0
-150 -174 -6850 0
-150 174 6850 0
150 -174 6850 0
6850 6847 -6795 0
-6850 -6847 -6795 0
-6850 6847 6795 0
6850 -6847 6795 0
-150 -174 6849 0
-174 -6847 6849 0
-150 -6847 6849 0
150 174 -6849 0
174 6847 -6849 0
150 6847 -6849 0
149 173 -6852 0
-149 -173 -6852 0
-149 173 6852 0
149 -173 6852 0
6852 6849 -6794 0
-6852 -6849 -6794 0
-6852 6849 6794 0
6852 -6849 6794 0
-149 -173 6851 0
-173 -6849 6851 0
-149 -6849 6851 0
149 173 -6851 0
173 6849 -6851 0
149 6849 -6851 0
148 172 -6854 0
-148 -172 -6854 0
-148 172 6854 0
148 -172 6854 0
6854 6851 -6793 0
-6854 -6851 -6793 0
-6854 6851 6793 0
6854 -6851 6793 0
-148 -172 6853 0
-172 -6851 6853 0
-148 -6851 6853 0
148 172 -6853 0
172 6851 -6853 0
148 6851 -6853 0
147 171 -6856 0
-147 -171 -6856 0
-147 171 6856 0
147 -171 6856 0
6856 6853 -6792 0
-6856 -6853 -6792 0
-6856 6853 6792 0
6856 -6853 6792 0
-147 -171 6855 0
-171 -6853 6855 0
-147 -6853 6855 0
147 171 -6855 0
171 6853 -6855 0
147 6853 -6855 0
146 170 -6858 0
-146 -170 -6858 0
-146 170 6858 0
146 -170 6858 0
6858 6855 -6791 0
-6858 -6855 -6791 0
-6858 6855 6791 0
6858 -6855 6791 0
-146 -170 6857 0
-170 -6855 6857 0
-146 -6855 6857 0
146 170 -6857 0
170 6855 -6857 0
146 6855 -6857 0
145 169 -6859 0
-145 -169 -6859 0
-145 169 6859 0
145 -169 6859 0
6859 6857 -6790 0
-6859 -6857 -6790 0
-6859 6857 6790 0
6859 -6857 6790 0
-145 -169 6789 0
-169 -6857 6789 0
-145 -6857 6789 0
145 169 -6789 0
169 6857 -6789 0
145 6857 -6789 0
-6860 0
6614 -6860 0
-6614 6860 0
6615 -6789 0
-6615 6789 0
6616 -6790 0
-6616 6790 0
6617 -6791 0
-6617 6791 0
6618 -6792 0
-6618 6792 0
6619 -6793 0
-6619 6793 0
6620 -6794 0
-6620 6794 0
6621 -6795 0
-6621 6795 0
6622 -6796 0
-6622 6796 0
6623 -6797 0
-6623 6797 0
6624 -6798 0
-6624 6798 0
6625 -6799 0
-6625 6799 0
6626 -6800 0
-6626 6800 0
6627 -6801 0
-6627 6801 0
6628 -6802 0
-6628 6802 0
6629 -6803 0
-6629 6803 0
6630 -6804 0
-6630 6804 0
6631 -6805 0
-6631 6805 0
6632 -6806 0
-6632 6806 0
6633 -6807 0
-6633 6807 0
6634 -6808 0
-6634 6808 0
6635 -6809 0
-6635 6809 0
6636 -6810 0
-6636 6810 0
6637 -6811 0
-6637 6811 0
6638 -6812 0
-6638 6812 0
6639 -6813 0
-6639 6813 0
120 120 -6885 0
-120 -120 -6885 0
-120 120 6885 0
120 -120 6885 0
120 -6886 0
120 -6886 0
-120 -120 6886 0
119 119 -6888 0
-119 -119 -6888 0
-119 119 6888 0
119 -119 6888 0
6888 6886 -6884 0
-6888 -6886 -6884 0
-6888 6886 6884 0
6888 -6886 6884 0
-119 -119 6887 0
-119 -6886 6887 0
-119 -6886 6887 0
119 119 -6887 0
119 6886 -6887 0
119 6886 -6887 0
118 118 -6890 0
-118 -118 -6890 0
-118 118 6890 0
118 -118 6890 0
6890 6887 -6883 0
-6890 -6887 -6883 0
-6890 6887 6883 0
6890 -6887 6883 0
-118 -118 6889 0
-118 -6887 6889 0
-118 -6887 6889 0
118 118 -6889 0
118 6887 -6889 0
118 6887 -6889 0
117 117 -6892 0
-117 -117 -6892 0
-117 117 6892 0
117 -117 6892 0
6892 6889 -6882 0
-6892 -6889 -6882 0
-6892 6889 6882 0
6892 -6889 6882 0
-117 -117 6891 0
-117 -6889 6891 0
-117 -6889 6891 0
117 117 -6891 0
117 6889 -6891 0
117 6889 -6891 0
116 116 -6894 0
-116 -116 -6894 0
-116 116 6894 0
116 -116 6894 0
6894 6891 -6881 0
-6894 -6891 -6881 0
-6894 6891 6881 0
6894 -6891 6881 0
-116 -116 6893 0
-116 -6891 6893 0
-116 -6891 6893 0
116 116 -6893 0
116 6891 -6893 0
116 6891 -6893 0
115 115 -6896 0
-115 -115 -6896 0
-115 115 6896 0
115 -115 6896 0
6896 6893 -6880 0
-6896 -6893 -6880 0
-6896 6893 6880 0
6896 -6893 6880 0
-115 -115 6895 0
-115 -6893 6895 0
-115 -6893 6895 0
115 115 -6895 0
115 6893 -6895 0
115 6893 -6895 0
114 114 -6898 0
-114 -114 -6898 0
-114 114 6898 0
114 -114 6898 0
6898 6895 -6879 0
-6898 -6895 -6879 0
-6898 6895 6879 0
6898 -6895 6879 0
-114 -114 6897 0
-114 -6895 6897 0
-114 -6895 6897 0
114 114 -6897 0
114 6895 -6897 0
114 6895 -6897 0
113 113 -6900 0
-113 -113 -6900 0
-113 113 6900 0
113 -113 6900 0
6900 6897 -6878 0
-6900 -6897 -6878 0
-6900 6897 6878 0
6900 -6897 6878 0
-113 -113 6899 0
-113 -6897 6899 0
-113 -6897 6899 0
113 113 -6899 0
113 6897 -6899 0
113 6897 -6899 0
112 112 -6902 0
-112 -112 -6902 0
-112 112 6902 0
112 -112 6902 0
6902 6899 -6877 0
-6902 -6899 -6877 0
-6902 6899 6877 0
6902 -6899 6877 0
-112 -112 6901 0
-112 -6899 6901 0
-112 -6899 6901 0
112 112 -6901 0
112 6899 -6901 0
112 6899 -6901 0
111 111 -6904 0
-111 -111 -6904 0
-111 111 6904 0
111 -111 6904 0
6904 6901 -6876 0
-6904 -6901 -6876 0
-6904 6901 6876 0
6904 -6901 6876 0
-111 -111 6903 0
-111 -6901 6903 0
-111 -6901 6903 0
111 111 -6903 0
111 6901 -6903 0
111 6901 -6903 0
110 110 -6906 0
-110 -110 -6906 0
-110 110 6906 0
110 -110 6906 0
6906 6903 -6875 0
-6906 -6903 -6875 0
-6906 6903 6875 0
6906 -6903 6875 0
-110 -110 6905 0
-110 -6903 6905 0
-110 -6903 6905 0
110 110 -6905 0
110 6903 -6905 0
110 6903 -6905 0
109 109 -6908 0
-109 -109 -6908 0
-109 109 6908 0
109 -109 6908 0
6908 6905 -6874 0
-6908 -6905 -6874 0
-6908 6905 6874 0
6908 -6905 6874 0
-109 -109 6907 0
-109 -6905 6907 0
-109 -6905 6907 0
109 109 -6907 0
109 6905 -6907 0
109 6905 -6907 0
108 108 -6910 0
-108 -108 -6910 0
-108 108 6910 0
108 -108 6910 0
6910 6907 -6873 0
-6910 -6907 -6873 0
-6910 6907 6873 0
6910 -6907 6873 0
-108 -108 6909 0
-108 -6907 6909 0
-108 -6907 6909 0
108 108 -6909 0
108 6907 -6909 0
108 6907 -6909 0
107 107 -6912 0
-107 -107 -6912 0
-107 107 6912 0
107 -107 6912 0
6912 6909 -6872 0
-6912 -6909 -6872 0
-6912 6909 6872 0
6912 -6909 6872 0
-107 -107 6911 0
-107 -6909 6911 0
-107 -6909 6911 0
107 107 -6911 0
107 6909 -6911 0
107 6909 -6911 0
106 106 -6914 0
-106 -106 -6914 0
-106 106 6914 0
106 -106 6914 0
6914 6911 -6871 0
-6914 -6911 -6871 0
-6914 6911 6871 0
6914 -6911 6871 0
-106 -106 6913 0
-106 -6911 6913 0
-106 -6911 6913 0
106 106 -6913 0
106 6911 -6913 0
106 6911 -6913 0
105 105 -6916 0
-105 -105 -6916 0
-105 105 6916 0
105 -105 6916 0
6916 6913 -6870 0
-6916 -6913 -6870 0
-6916 6913 6870 0
6916 -6913 6870 0
-105 -105 6915 0
-105 -6913 6915 0
-105 -6913 6915 0
105 105 -6915 0
105 6913 -6915 0
105 6913 -6915 0
104 104 -6918 0
-104 -104 -6918 0
-104 104 6918 0
104 -104 6918 0
6918 6915 -6869 0
-6918 -6915 -6869 0
-6918 6915 6869 0
6918 -6915 6869 0
-104 -104 6917 0
-104 -6915 6917 0
-104 -6915 6917 0
104 104 -6917 0
104 6915 -6917 0
104 6915 -6917 0
103 103 -6920 0
-103 -103 -6920 0
-103 103 6920 0
103 -103 6920 0
6920 6917 -6868 0
-6920 -6917 -6868 0
-6920 6917 6868 0
6920 -6917 6868 0
-103 -103 6919 0
-103 -6917 6919 0
-103 -6917 6919 0
103 103 -6919 0
103 6917 -6919 0
103 6917 -6919 0
102 102 -6922 0
-102 -102 -6922 0
-102 102 6922 0
102 -102 6922 0
6922 6919 -6867 0
-6922 -6919 -6867 0
-6922 6919 6867 0
6922 -6919 6867 0
-102 -102 6921 0
-102 -6919 6921 0
-102 -6919 6921 0
102 102 -6921 0
102 6919 -6921 0
102 6919 -6921 0
101 101 -6924 0
-101 -101 -6924 0
-101 101 6924 0
101 -101 6924 0
6924 6921 -6866 0
-6924 -6921 -6866 0
-6924 6921 6866 0
6924 -6921 6866 0
-101 -101 6923 0
-101 -6921 6923 0
-101 -6921 6923 0
101 101 -6923 0
101 6921 -6923 0
101 6921 -6923 0
100 100 -6926 0
-100 -100 -6926 0
-100 100 6926 0
100 -100 6926 0
6926 6923 -6865 0
-6926 -6923 -6865 0
-6926 6923 6865 0
6926 -6923 6865 0
-100 -100 6925 0
-100 -6923 6925 0
-100 -6923 6925 0
100 100 -6925 0
100 6923 -6925 0
100 6923 -6925 0
99 99 -6928 0
-99 -99 -6928 0
-99 99 6928 0
99 -99 6928 0
6928 6925 -6864 0
-6928 -6925 -6864 0
-6928 6925 6864 0
6928 -6925 6864 0
-99 -99 6927 0
-99 -6925 6927 0
-99 -6925 6927 0
99 99 -6927 0
99 6925 -6927 0
99 6925 -6927 0
98 98 -6930 0
-98 -98 -6930 0
-98 98 6930 0
98 -98 6930 0
6930 6927 -6863 0
-6930 -6927 -6863 0
-6930 6927 6863 0
6930 -6927 6863 0
-98 -98 6929 0
-98 -6927 6929 0
-98 -6927 6929 0
98 98 -6929 0
98 6927 -6929 0
98 6927 -6929 0
97 97 -6931 0
-97 -97 -6931 0
-97 97 6931 0
97 -97 6931 0
6931 6929 -6862 0
-6931 -6929 -6862 0
-6931 6929 6862 0
6931 -6929 6862 0
-97 -97 6861 0
-97 -6929 6861 0
-97 -6929 6861 0
97 97 -6861 0
97 6929 -6861 0
97 6929 -6861 0
120 6885 -6957 0
-120 -6885 -6957 0
-120 6885 6957 0
120 -6885 6957 0
120 -6958 0
6885 -6958 0
-120 -6885 6958 0
119 6884 -6960 0
-119 -6884 -6960 0
-119 6884 6960 0
119 -6884 6960 0
6960 6958 -6956 0
-6960 -6958 -6956 0
-6960 6958 6956 0
6960 -6958 6956 0
-119 -6884 6959 0
-6884 -6958 6959 0
-119 -6958 6959 0
119 6884 -6959 0
6884 6958 -6959 0
119 6958 -6959 0
118 6883 -6962 0
-118 -6883 -6962 0
-118 6883 6962 0
118 -6883 6962 0
6962 6959 -6955 0
-6962 -6959 -6955 0
-6962 6959 6955 0
6962 -6959 6955 0
-118 -6883 6961 0
-6883 -6959 6961 0
-118 -6959 6961 0
118 6883 -6961 0
6883 6959 -6961 0
118 6959 -6961 0
117 6882 -6964 0
-117 -6882 -6964 0
-117 6882 6964 0
117 -6882 6964 0
6964 6961 -6954 0
-6964 -6961 -6954 0
-6964 6961 6954 0
6964 -6961 6954 0
-117 -6882 6963 0
-6882 -6961 6963 0
-117 -6961 6963 0
117 6882 -6963 0
6882 6961 -6963 0
117 6961 -6963 0
116 6881 -6966 0
-116 -6881 -6966 0
-116 6881 6966 0
116 -6881 6966 0
6966 6963 -6953 0
-6966 -6963 -6953 0
-6966 6963 6953 0
6966 -6963 6953 0
-116 -6881 6965 0
-6881 -6963 6965 0
-116 -6963 6965 0
116 6881 -6965 0
6881 6963 -6965 0
116 6963 -6965 0
115 6880 -6968 0
-115 -6880 -6968 0
-115 6880 6968 0
115 -6880 6968 0
6968 6965 -6952 0
-6968 -6965 -6952 0
-6968 6965 6952 0
6968 -6965 6952 0
-115 -6880 6967 0
-6880 -6965 6967 0
-115 -6965 6967 0
115 6880 -6967 0
6880 6965 -6967 0
115 6965 -6967 0
114 6879 -6970 0
-114 -6879 -6970 0
-114 6879 6970 0
114 -6879 6970 0
6970 6967 -6951 0
-6970 -6967 -6951 0
-6970 6967 6951 0
6970 -6967 6951 0
-114 -6879 6969 0
-6879 -6967 6969 0
-114 -6967 6969 0
114 6879 -6969 0
6879 6967 -6969 0
114 6967 -6969 0
113 6878 -6972 0
-113 -6878 -6972 0
-113 6878 6972 0
113 -6878 6972 0
6972 6969 -6950 0
-6972 -6969 -6950 0
-6972 6969 6950 0
6972 -6969 6950 0
-113 -6878 6971 0
-6878 -6969 6971 0
-113 -6969 6971 0
113 6878 -6971 0
6878 6969 -6971 0
113 6969 -6971 0
112 6877 -6974 0
-112 -6877 -6974 0
-112 6877 6974 0
112 -6877 6974 0
6974 6971 -6949 0
-6974 -6971 -6949 0
-6974 6971 6949 0
6974 -6971 6949 0
-112 -6877 6973 0
-6877 -6971 6973 0
-112 -6971 6973 0
112 6877 -6973 0
6877 6971 -6973 0
112 6971 -6973 0
111 6876 -6976 0
-111 -6876 -6976 0
-111 6876 6976 0
111 -6876 6976 0
6976 6973 -6948 0
-6976 -6973 -6948 0
-6976 6973 6948 0
6976 -6973 6948 0
-111 -6876 6975 0
-6876 -6973 6975 0
-111 -6973 6975 0
111 6876 -6975 0
6876 6973 -6975 0
111 6973 -6975 0
110 6875 -6978 0
-110 -6875 -6978 0
-110 6875 6978 0
110 -6875 6978 0
6978 6975 -6947 0
-6978 -6975 -6947 0
-6978 6975 6947 0
6978 -6975 6947 0
-110 -6875 6977 0
-6875 -6975 6977 0
-110 -6975 6977 0
110 6875 -6977 0
6875 6975 -6977 0
110 6975 -6977 0
109 6874 -6980 0
-109 -6874 -6980 0
-109 6874 6980 0
109 -6874 6980 0
6980 6977 -6946 0
-6980 -6977 -6946 0
-6980 6977 6946 0
6980 -6977 6946 0
-109 -6874 6979 0
-6874 -6977 6979 0
-109 -6977 6979 0
109 6874 -6979 0
6874 6977 -6979 0
109 6977 -6979 0
108 6873 -6982 0
-108 -6873 -6982 0
-108 6873 6982 0
108 -6873 6982 0
6982 6979 -6945 0
-6982 -6979 -6945 0
-6982 6979 6945 0
6982 -6979 6945 0
-108 -6873 6981 0
-6873 -6979 6981 0
-108 -6979 6981 0
108 6873 -6981 0
6873 6979 -6981 0
108 6979 -6981 0
107 6872 -6984 0
-107 -6872 -6984 0
-107 6872 6984 0
107 -6872 6984 0
6984 6981 -6944 0
-6984 -6981 -6944 0
-6984 6981 6944 0
6984 -6981 6944 0
-107 -6872 6983 0
-6872 -6981 6983 0
-107 -6981 6983 0
107 6872 -6983 0
6872 6981 -6983 0
107 6981 -6983 0
106 6871 -6986 0
-106 -6871 -6986 0
-106 6871 6986 0
106 -6871 6986 0
6986 6983 -6943 0
-6986 -6983 -6943 0
-6986 6983 6943 0
6986 -6983 6943 0
-106 -6871 6985 0
-6871 -6983 6985 0
-106 -6983 6985 0
106 6871 -6985 0
6871 6983 -6985 0
106 6983 -6985 0
105 6870 -6988 0
-105 -6870 -6988 0
-105 6870 6988 0
105 -6870 6988 0
6988 6985 -6942 0
-6988 -6985 -6942 0
-6988 6985 6942 0
6988 -6985 6942 0
-105 -6870 6987 0
-6870 -6985 6987 0
-105 -6985 6987 0
105 6870 -6987 0
6870 6985 -6987 0
105 6985 -6987 0
104 6869 -6990 0
-104 -6869 -6990 0
-104 6869 6990 0
104 -6869 6990 0
6990 6987 -6941 0
-6990 -6987 -6941 0
-6990 6987 6941 0
6990 -6987 6941 0
-104 -6869 6989 0
-6869 -6987 6989 0
-104 -6987 6989 0
104 6869 -6989 0
6869 6987 -6989 0
104 6987 -6989 0
103 6868 -6992 0
-103 -6868 -6992 0
-103 6868 6992 0
103 -6868 6992 0
6992 6989 -6940 0
-6992 -6989 -6940 0
-6992 6989 6940 0
6992 -6989 6940 0
-103 -6868 6991 0
-6868 -6989 6991 0
-103 -6989 6991 0
103 6868 -6991 0
6868 6989 -6991 0
103 6989 -6991 0
102 6867 -6994 0
-102 -6867 -6994 0
-102 6867 6994 0
102 -6867 6994 0
6994 6991 -6939 0
-6994 -6991 -6939 0
-6994 6991 6939 0
6994 -6991 6939 0
-102 -6867 6993 0
-6867 -6991 6993 0
-102 -6991 6993 0
102 6867 -6993 0
6867 6991 -6993 0
102 6991 -6993 0
101 6866 -6996 0
-101 -6866 -6996 0
-101 6866 6996 0
101 -6866 6996 0
6996 6993 -6938 0
-6996 -6993 -6938 0
-6996 6993 6938 0
6996 -6993 6938 0
-101 -6866 6995 0
-6866 -6993 6995 0
-101 -6993 6995 0
101 6866 -6995 0
6866 6993 -6995 0
101 6993 -6995 0
100 6865 -6998 0
-100 -6865 -6998 0
-100 6865 6998 0
100 -6865 6998 0
6998 6995 -6937 0
-6998 -6995 -6937 0
-6998 6995 6937 0
6998 -6995 6937 0
-100 -6865 6997 0
-6865 -6995 6997 0
-100 -6995 6997 0
100 6865 -6997 0
6865 6995 -6997 0
100 6995 -6997 0
99 6864 -7000 0
-99 -6864 -7000 0
-99 6864 7000 0
99 -6864 7000 0
7000 6997 -6936 0
-7000 -6997 -6936 0
-7000 6997 6936 0
7000 -6997 6936 0
-99 -6864 6999 0
-6864 -6997 6999 0
-99 -6997 6999 0
99 6864 -6999 0
6864 6997 -6999 0
99 6997 -6999 0
98 6863 -7002 0
-98 -6863 -7002 0
-98 6863 7002 0
98 -6863 7002 0
7002 6999 -6935 0
-7002 -6999 -6935 0
-7002 6999 6935 0
7002 -6999 6935 0
-98 -6863 7001 0
-6863 -6999 7001 0
-98 -6999 7001 0
98 6863 -7001 0
6863 6999 -7001 0
98 6999 -7001 0
97 6862 -7004 0
-97 -6862 -7004 0
-97 6862 7004 0
97 -6862 7004 0
7004 7001 -6934 0
-7004 -7001 -6934 0
-7004 7001 6934 0
7004 -7001 6934 0
-97 -6862 7003 0
-6862 -7001 7003 0
-97 -7001 7003 0
97 6862 -7003 0
6862 7001 -7003 0
97 7001 -7003 0
6861 7003 -6933 0
-6861 -7003 -6933 0
-6861 7003 6933 0
6861 -7003 6933 0
6861 -6932 0
7003 -6932 0
-6861 -7003 6932 0
5941 -6932 0
-5941 6932 0
5942 -6933 0
-5942 6933 0
5943 -6934 0
-5943 6934 0
5944 -6935 0
-5944 6935 0
5945 -6936 0
-5945 6936 0
5946 -6937 0
-5946 6937 0
5947 -6938 0
-5947 6938 0
5948 -6939 0
-5948 6939 0
5949 -6940 0
-5949 6940 0
5950 -6941 0
-5950 6941 0
5951 -6942 0
-5951 6942 0
5952 -6943 0
-5952 6943 0
5953 -6944 0
-5953 6944 0
5954 -6945 0
-5954 6945 0
5955 -6946 0
-5955 6946 0
5956 -6947 0
-5956 6947 0
5957 -6948 0
-5957 6948 0
5958 -6949 0
-5958 6949 0
5959 -6950 0
-5959 6950 0
5960 -6951 0
-5960 6951 0
5961 -6952 0
-5961 6952 0
5962 -6953 0
-5962 6953 0
5963 -6954 0
-5963 6954 0
5964 -6955 0
-5964 6955 0
5965 -6956 0
-5965 6956 0
5966 -6957 0
-5966 6957 0
